%%MatrixMarket matrix coordinate  real general
10 10 100
1 1 0.00000000000000000e+00
2 1 9.17473704805326223e-02
3 1 2.77632313477361670e-01
4 1 4.62355858624667937e-01
5 1 6.33883476483184327e-01
6 1 7.80330085889910596e-01
7 1 8.92471171724933510e-01
8 1 9.65601538737017151e-01
9 1 1.00000000000000000e+00
10 1 1.00000000000000000e+00
1 2 0.00000000000000000e+00
2 2 9.74815811355659173e-02
3 2 2.94984333069696736e-01
4 2 4.91253099788709791e-01
5 2 6.73501193763383355e-01
6 2 8.29100716258029946e-01
7 2 9.48250619957741847e-01
8 2 1.02595163490808061e+00
9 2 1.06250000000000022e+00
10 2 1.06250000000000000e+00
1 3 0.00000000000000000e+00
2 3 1.08950002445632479e-01
3 3 3.29688372254366924e-01
4 3 5.49047582116793276e-01
5 3 7.52736628323781298e-01
6 3 9.26641976994268868e-01
7 3 1.05980951642335874e+00
8 3 1.14665182725020798e+00
9 3 1.18750000000000022e+00
10 3 1.18750000000000022e+00
1 4 0.00000000000000000e+00
2 4 1.20418423755699069e-01
3 4 3.64392411439037112e-01
4 4 6.06842064444876872e-01
5 4 8.31972062884179353e-01
6 4 1.02418323773050779e+00
7 4 1.17136841288897520e+00
8 4 1.26735201959233512e+00
9 4 1.31250000000000000e+00
10 4 1.31250000000000022e+00
1 5 0.00000000000000000e+00
2 5 1.31886845065765645e-01
3 5 3.99096450623707355e-01
4 5 6.64636546772960357e-01
5 5 9.11207497444577297e-01
6 5 1.12172449846674649e+00
7 5 1.28292730935459165e+00
8 5 1.38805221193446227e+00
9 5 1.43750000000000000e+00
10 5 1.43750000000000022e+00
1 6 0.00000000000000000e+00
2 6 1.43355266375832235e-01
3 6 4.33800489808377543e-01
4 6 7.22431029101043842e-01
5 6 9.90442932004975352e-01
6 6 1.21926575920298541e+00
7 6 1.39448620582020855e+00
8 6 1.50875240427658941e+00
9 6 1.56250000000000022e+00
10 6 1.56250000000000022e+00
1 7 0.00000000000000000e+00
2 7 1.54823687685898825e-01
3 7 4.68504528993047786e-01
4 7 7.80225511429127327e-01
5 7 1.06967836656537330e+00
6 7 1.31680701993922411e+00
7 7 1.50604510228582522e+00
8 7 1.62945259661871655e+00
9 7 1.68750000000000000e+00
10 7 1.68750000000000000e+00
1 8 0.00000000000000000e+00
2 8 1.66292108995965415e-01
3 8 5.03208568177717974e-01
4 8 8.38019993757210924e-01
5 8 1.14891380112577135e+00
6 8 1.41434828067546281e+00
7 8 1.61760399875144190e+00
8 8 1.75015278896084370e+00
9 8 1.81250000000000000e+00
10 8 1.81250000000000000e+00
1 9 0.00000000000000000e+00
2 9 1.77760530306031950e-01
3 9 5.37912607362388218e-01
4 9 8.95814476085294298e-01
5 9 1.22814923568616963e+00
6 9 1.51188954141170173e+00
7 9 1.72916289521705879e+00
8 9 1.87085298130297084e+00
9 9 1.93750000000000000e+00
10 9 1.93750000000000000e+00
1 10 0.00000000000000000e+00
2 10 1.83494740961065245e-01
3 10 5.55264626954723339e-01
4 10 9.24711717249335874e-01
5 10 1.26776695296636865e+00
6 10 1.56066017177982119e+00
7 10 1.78494234344986702e+00
8 10 1.93120307747403452e+00
9 10 2.00000000000000000e+00
10 10 2.00000000000000000e+00
