%%MatrixMarket matrix coordinate  real general
10 10 100
1 1 1.00000000000000000e+00
2 1 1.00000000000000000e+00
3 1 9.65601538737017262e-01
4 1 8.92471171724933510e-01
5 1 7.80330085889910485e-01
6 1 6.33883476483184327e-01
7 1 4.62355858624668048e-01
8 1 2.77632313477361725e-01
9 1 9.17473704805326917e-02
10 1 6.12323399573676604e-17
1 2 1.06250000000000000e+00
2 2 1.06250000000000022e+00
3 2 1.02595163490808083e+00
4 2 9.48250619957742069e-01
5 2 8.29100716258029946e-01
6 2 6.73501193763383355e-01
7 2 4.91253099788709791e-01
8 2 2.94984333069696847e-01
9 2 9.74815811355659867e-02
10 2 6.50593612047031461e-17
1 3 1.18750000000000022e+00
2 3 1.18750000000000022e+00
3 3 1.14665182725020842e+00
4 3 1.05980951642335874e+00
5 3 9.26641976994268757e-01
6 3 7.52736628323781409e-01
7 3 5.49047582116793276e-01
8 3 3.29688372254367090e-01
9 3 1.08950002445632604e-01
10 3 7.27134036993741175e-17
1 4 1.31250000000000022e+00
2 4 1.31250000000000022e+00
3 4 1.26735201959233557e+00
4 4 1.17136841288897542e+00
5 4 1.02418323773050757e+00
6 4 8.31972062884179575e-01
7 4 6.06842064444876539e-01
8 4 3.64392411439037278e-01
9 4 1.20418423755699180e-01
10 4 8.03674461940450642e-17
1 5 1.43750000000000022e+00
2 5 1.43750000000000022e+00
3 5 1.38805221193446271e+00
4 5 1.28292730935459232e+00
5 5 1.12172449846674649e+00
6 5 9.11207497444577519e-01
7 5 6.64636546772960135e-01
8 5 3.99096450623707466e-01
9 5 1.31886845065765757e-01
10 5 8.80214886887160110e-17
1 6 1.56250000000000022e+00
2 6 1.56250000000000022e+00
3 6 1.50875240427658985e+00
4 6 1.39448620582020899e+00
5 6 1.21926575920298519e+00
6 6 9.90442932004975574e-01
7 6 7.22431029101043731e-01
8 6 4.33800489808377654e-01
9 6 1.43355266375832346e-01
10 6 9.56755311833869824e-17
1 7 1.68750000000000000e+00
2 7 1.68750000000000000e+00
3 7 1.62945259661871678e+00
4 7 1.50604510228582567e+00
5 7 1.31680701993922411e+00
6 7 1.06967836656537352e+00
7 7 7.80225511429127327e-01
8 7 4.68504528993047897e-01
9 7 1.54823687685898936e-01
10 7 1.03329573678057929e-16
1 8 1.81250000000000000e+00
2 8 1.81250000000000000e+00
3 8 1.75015278896084392e+00
4 8 1.61760399875144234e+00
5 8 1.41434828067546281e+00
6 8 1.14891380112577179e+00
7 8 8.38019993757210813e-01
8 8 5.03208568177718196e-01
9 8 1.66292108995965554e-01
10 8 1.10983616172728876e-16
1 9 1.93750000000000000e+00
2 9 1.93750000000000000e+00
3 9 1.87085298130297106e+00
4 9 1.72916289521705879e+00
5 9 1.51188954141170173e+00
6 9 1.22814923568616985e+00
7 9 8.95814476085294409e-01
8 9 5.37912607362388329e-01
9 9 1.77760530306032116e-01
10 9 1.18637658667399847e-16
1 10 2.00000000000000000e+00
2 10 2.00000000000000000e+00
3 10 1.93120307747403452e+00
4 10 1.78494234344986702e+00
5 10 1.56066017177982097e+00
6 10 1.26776695296636865e+00
7 10 9.24711717249336096e-01
8 10 5.55264626954723450e-01
9 10 1.83494740961065383e-01
10 10 1.22464679914735321e-16
