%%MatrixMarket matrix coordinate  real general
10 10 100
1 1 1.00000000000000000e+00
2 1 9.63388347648318488e-01
3 1 9.08470869120796110e-01
4 1 8.71859216769114598e-01
5 1 8.53553390593273842e-01
6 1 8.53553390593273953e-01
7 1 8.71859216769114709e-01
8 1 9.08470869120796221e-01
9 1 9.63388347648318488e-01
10 1 1.00000000000000000e+00
1 2 1.00000000000000000e+00
2 2 9.63388347648318488e-01
3 2 9.08470869120796110e-01
4 2 8.71859216769114598e-01
5 2 8.53553390593273953e-01
6 2 8.53553390593274064e-01
7 2 8.71859216769114820e-01
8 2 9.08470869120796332e-01
9 2 9.63388347648318488e-01
10 2 1.00000000000000000e+00
1 3 1.00000000000000000e+00
2 3 9.63388347648318488e-01
3 3 9.08470869120796110e-01
4 3 8.71859216769114598e-01
5 3 8.53553390593274064e-01
6 3 8.53553390593274064e-01
7 3 8.71859216769114820e-01
8 3 9.08470869120796332e-01
9 3 9.63388347648318488e-01
10 3 1.00000000000000000e+00
1 4 1.00000000000000000e+00
2 4 9.63388347648318488e-01
3 4 9.08470869120796110e-01
4 4 8.71859216769114598e-01
5 4 8.53553390593273953e-01
6 4 8.53553390593273953e-01
7 4 8.71859216769114820e-01
8 4 9.08470869120796332e-01
9 4 9.63388347648318488e-01
10 4 1.00000000000000000e+00
1 5 1.00000000000000000e+00
2 5 9.63388347648318488e-01
3 5 9.08470869120796110e-01
4 5 8.71859216769114598e-01
5 5 8.53553390593273953e-01
6 5 8.53553390593273953e-01
7 5 8.71859216769114820e-01
8 5 9.08470869120796332e-01
9 5 9.63388347648318488e-01
10 5 1.00000000000000000e+00
1 6 1.00000000000000000e+00
2 6 9.63388347648318488e-01
3 6 9.08470869120796110e-01
4 6 8.71859216769114598e-01
5 6 8.53553390593273953e-01
6 6 8.53553390593273953e-01
7 6 8.71859216769114820e-01
8 6 9.08470869120796443e-01
9 6 9.63388347648318488e-01
10 6 1.00000000000000000e+00
1 7 1.00000000000000000e+00
2 7 9.63388347648318488e-01
3 7 9.08470869120796110e-01
4 7 8.71859216769114598e-01
5 7 8.53553390593273842e-01
6 7 8.53553390593273953e-01
7 7 8.71859216769114709e-01
8 7 9.08470869120796332e-01
9 7 9.63388347648318488e-01
10 7 1.00000000000000000e+00
1 8 1.00000000000000000e+00
2 8 9.63388347648318488e-01
3 8 9.08470869120796110e-01
4 8 8.71859216769114598e-01
5 8 8.53553390593273842e-01
6 8 8.53553390593273953e-01
7 8 8.71859216769114709e-01
8 8 9.08470869120796221e-01
9 8 9.63388347648318488e-01
10 8 1.00000000000000000e+00
1 9 1.00000000000000000e+00
2 9 9.63388347648318488e-01
3 9 9.08470869120796110e-01
4 9 8.71859216769114598e-01
5 9 8.53553390593273842e-01
6 9 8.53553390593273953e-01
7 9 8.71859216769114709e-01
8 9 9.08470869120796221e-01
9 9 9.63388347648318488e-01
10 9 1.00000000000000000e+00
1 10 1.00000000000000000e+00
2 10 9.63388347648318488e-01
3 10 9.08470869120796110e-01
4 10 8.71859216769114598e-01
5 10 8.53553390593273842e-01
6 10 8.53553390593273953e-01
7 10 8.71859216769114709e-01
8 10 9.08470869120796221e-01
9 10 9.63388347648318488e-01
10 10 1.00000000000000000e+00
