%%MatrixMarket matrix coordinate  real general
13 6 78
1 1 1.00000000000000000e+00
2 1 1.00000000000000000e+00
3 1 1.00000000000000000e+00
4 1 1.00000000000000000e+00
5 1 1.00000000000000000e+00
6 1 1.00000000000000000e+00
7 1 1.00000000000000000e+00
8 1 1.00000000000000000e+00
9 1 1.00000000000000000e+00
10 1 1.00000000000000000e+00
11 1 1.00000000000000000e+00
12 1 1.00000000000000000e+00
13 1 1.00000000000000000e+00
1 2 1.00000000000000000e+00
2 2 1.00000000000000000e+00
3 2 1.00000000000000000e+00
4 2 1.00000000000000000e+00
5 2 1.00000000000000000e+00
6 2 1.00000000000000000e+00
7 2 1.00000000000000000e+00
8 2 1.00000000000000000e+00
9 2 1.00000000000000000e+00
10 2 1.00000000000000000e+00
11 2 1.00000000000000000e+00
12 2 1.00000000000000000e+00
13 2 1.00000000000000000e+00
1 3 4.99999999999999944e-01
2 3 5.00000000000000000e-01
3 3 5.00000000000000000e-01
4 3 4.99999999999999944e-01
5 3 5.00000000000000000e-01
6 3 5.00000000000000000e-01
7 3 4.99999999999999944e-01
8 3 5.00000000000000000e-01
9 3 5.00000000000000000e-01
10 3 4.99999999999999944e-01
11 3 5.00000000000000000e-01
12 3 5.00000000000000000e-01
13 3 4.99999999999999944e-01
1 4 -5.00000000000000000e-01
2 4 -4.99999999999999944e-01
3 4 -4.99999999999999944e-01
4 4 -5.00000000000000000e-01
5 4 -4.99999999999999944e-01
6 4 -4.99999999999999944e-01
7 4 -5.00000000000000000e-01
8 4 -4.99999999999999944e-01
9 4 -4.99999999999999944e-01
10 4 -5.00000000000000000e-01
11 4 -4.99999999999999944e-01
12 4 -4.99999999999999944e-01
13 4 -5.00000000000000000e-01
1 5 -1.00000000000000000e+00
2 5 -1.00000000000000000e+00
3 5 -1.00000000000000000e+00
4 5 -1.00000000000000000e+00
5 5 -1.00000000000000000e+00
6 5 -1.00000000000000000e+00
7 5 -1.00000000000000000e+00
8 5 -1.00000000000000000e+00
9 5 -1.00000000000000000e+00
10 5 -1.00000000000000000e+00
11 5 -1.00000000000000000e+00
12 5 -1.00000000000000000e+00
13 5 -1.00000000000000000e+00
1 6 -1.00000000000000000e+00
2 6 -1.00000000000000000e+00
3 6 -1.00000000000000000e+00
4 6 -1.00000000000000000e+00
5 6 -1.00000000000000000e+00
6 6 -1.00000000000000000e+00
7 6 -1.00000000000000000e+00
8 6 -1.00000000000000000e+00
9 6 -1.00000000000000000e+00
10 6 -1.00000000000000000e+00
11 6 -1.00000000000000000e+00
12 6 -1.00000000000000000e+00
13 6 -1.00000000000000000e+00
