%%MatrixMarket matrix coordinate  real general
13 6 78
1 1 0.00000000000000000e+00
2 1 0.00000000000000000e+00
3 1 0.00000000000000000e+00
4 1 0.00000000000000000e+00
5 1 0.00000000000000000e+00
6 1 0.00000000000000000e+00
7 1 0.00000000000000000e+00
8 1 0.00000000000000000e+00
9 1 0.00000000000000000e+00
10 1 0.00000000000000000e+00
11 1 0.00000000000000000e+00
12 1 0.00000000000000000e+00
13 1 0.00000000000000000e+00
1 2 0.00000000000000000e+00
2 2 -1.38071187457698363e-01
3 2 -3.33333333333333370e-01
4 2 -3.33333333333333315e-01
5 2 -3.33333333333333370e-01
6 2 -1.38071187457698391e-01
7 2 -4.08215599715784382e-17
8 2 1.38071187457698336e-01
9 2 3.33333333333333370e-01
10 2 3.33333333333333315e-01
11 2 3.33333333333333426e-01
12 2 1.38071187457698447e-01
13 2 8.16431199431568764e-17
1 3 0.00000000000000000e+00
2 3 -4.14213562373095034e-01
3 3 -1.00000000000000000e+00
4 3 -1.00000000000000000e+00
5 3 -1.00000000000000000e+00
6 3 -4.14213562373095145e-01
7 3 -1.22464679914735321e-16
8 3 4.14213562373095034e-01
9 3 1.00000000000000000e+00
10 3 1.00000000000000000e+00
11 3 1.00000000000000022e+00
12 3 4.14213562373095368e-01
13 3 2.44929359829470641e-16
1 4 0.00000000000000000e+00
2 4 -4.14213562373095034e-01
3 4 -1.00000000000000000e+00
4 4 -1.00000000000000000e+00
5 4 -1.00000000000000000e+00
6 4 -4.14213562373095145e-01
7 4 -1.22464679914735321e-16
8 4 4.14213562373094979e-01
9 4 1.00000000000000000e+00
10 4 1.00000000000000000e+00
11 4 1.00000000000000022e+00
12 4 4.14213562373095312e-01
13 4 2.44929359829470641e-16
1 5 0.00000000000000000e+00
2 5 -1.38071187457698363e-01
3 5 -3.33333333333333370e-01
4 5 -3.33333333333333315e-01
5 5 -3.33333333333333370e-01
6 5 -1.38071187457698391e-01
7 5 -4.08215599715784382e-17
8 5 1.38071187457698336e-01
9 5 3.33333333333333370e-01
10 5 3.33333333333333315e-01
11 5 3.33333333333333426e-01
12 5 1.38071187457698447e-01
13 5 8.16431199431568764e-17
1 6 0.00000000000000000e+00
2 6 0.00000000000000000e+00
3 6 0.00000000000000000e+00
4 6 0.00000000000000000e+00
5 6 0.00000000000000000e+00
6 6 0.00000000000000000e+00
7 6 0.00000000000000000e+00
8 6 0.00000000000000000e+00
9 6 0.00000000000000000e+00
10 6 0.00000000000000000e+00
11 6 0.00000000000000000e+00
12 6 0.00000000000000000e+00
13 6 0.00000000000000000e+00
