%%MatrixMarket matrix coordinate  real general
13 6 78
1 1 0.00000000000000000e+00
2 1 0.00000000000000000e+00
3 1 0.00000000000000000e+00
4 1 0.00000000000000000e+00
5 1 0.00000000000000000e+00
6 1 0.00000000000000000e+00
7 1 0.00000000000000000e+00
8 1 0.00000000000000000e+00
9 1 0.00000000000000000e+00
10 1 0.00000000000000000e+00
11 1 0.00000000000000000e+00
12 1 0.00000000000000000e+00
13 1 0.00000000000000000e+00
1 2 3.33333333333333315e-01
2 2 3.33333333333333370e-01
3 2 1.38071187457698391e-01
4 2 2.04107799857892191e-17
5 2 -1.38071187457698336e-01
6 2 -3.33333333333333370e-01
7 2 -3.33333333333333315e-01
8 2 -3.33333333333333426e-01
9 2 -1.38071187457698447e-01
10 2 -6.12323399573676604e-17
11 2 1.38071187457698308e-01
12 2 3.33333333333333370e-01
13 2 3.33333333333333315e-01
1 3 1.00000000000000000e+00
2 3 1.00000000000000000e+00
3 3 4.14213562373095145e-01
4 3 6.12323399573676604e-17
5 3 -4.14213562373095034e-01
6 3 -1.00000000000000000e+00
7 3 -1.00000000000000000e+00
8 3 -1.00000000000000022e+00
9 3 -4.14213562373095368e-01
10 3 -1.83697019872102969e-16
11 3 4.14213562373094979e-01
12 3 1.00000000000000000e+00
13 3 1.00000000000000000e+00
1 4 1.00000000000000000e+00
2 4 1.00000000000000000e+00
3 4 4.14213562373095145e-01
4 4 6.12323399573676604e-17
5 4 -4.14213562373094979e-01
6 4 -1.00000000000000000e+00
7 4 -1.00000000000000000e+00
8 4 -1.00000000000000022e+00
9 4 -4.14213562373095312e-01
10 4 -1.83697019872102969e-16
11 4 4.14213562373094923e-01
12 4 1.00000000000000000e+00
13 4 1.00000000000000000e+00
1 5 3.33333333333333315e-01
2 5 3.33333333333333370e-01
3 5 1.38071187457698391e-01
4 5 2.04107799857892191e-17
5 5 -1.38071187457698336e-01
6 5 -3.33333333333333370e-01
7 5 -3.33333333333333315e-01
8 5 -3.33333333333333426e-01
9 5 -1.38071187457698447e-01
10 5 -6.12323399573676604e-17
11 5 1.38071187457698308e-01
12 5 3.33333333333333370e-01
13 5 3.33333333333333315e-01
1 6 0.00000000000000000e+00
2 6 0.00000000000000000e+00
3 6 0.00000000000000000e+00
4 6 0.00000000000000000e+00
5 6 0.00000000000000000e+00
6 6 0.00000000000000000e+00
7 6 0.00000000000000000e+00
8 6 0.00000000000000000e+00
9 6 0.00000000000000000e+00
10 6 0.00000000000000000e+00
11 6 0.00000000000000000e+00
12 6 0.00000000000000000e+00
13 6 0.00000000000000000e+00
