%%MatrixMarket matrix coordinate  real general
1 16 16
1 1 0.00000000000000000e+00
1 2 0.00000000000000000e+00
1 3 0.00000000000000000e+00
1 4 1.25000000000000000e-01
1 5 2.50000000000000000e-01
1 6 2.50000000000000000e-01
1 7 3.75000000000000000e-01
1 8 5.00000000000000000e-01
1 9 5.00000000000000000e-01
1 10 6.25000000000000000e-01
1 11 7.50000000000000000e-01
1 12 7.50000000000000000e-01
1 13 8.75000000000000000e-01
1 14 1.00000000000000000e+00
1 15 1.00000000000000000e+00
1 16 1.00000000000000000e+00
