%%MatrixMarket matrix coordinate  real general
13 6 78
1 1 1.00000000000000000e+00
2 1 8.53553390593273731e-01
3 1 8.53553390593273731e-01
4 1 1.00000000000000000e+00
5 1 8.53553390593273731e-01
6 1 8.53553390593273731e-01
7 1 1.00000000000000000e+00
8 1 8.53553390593273731e-01
9 1 8.53553390593273731e-01
10 1 1.00000000000000000e+00
11 1 8.53553390593273731e-01
12 1 8.53553390593273731e-01
13 1 1.00000000000000000e+00
1 2 7.50000000000000000e-01
2 2 6.40165042944955243e-01
3 2 6.40165042944955243e-01
4 2 7.50000000000000000e-01
5 2 6.40165042944955243e-01
6 2 6.40165042944955243e-01
7 2 7.50000000000000000e-01
8 2 6.40165042944955243e-01
9 2 6.40165042944955243e-01
10 2 7.50000000000000000e-01
11 2 6.40165042944955243e-01
12 2 6.40165042944955243e-01
13 2 7.50000000000000000e-01
1 3 5.00000000000000000e-01
2 3 4.26776695296636865e-01
3 3 4.26776695296636865e-01
4 3 5.00000000000000000e-01
5 3 4.26776695296636865e-01
6 3 4.26776695296636865e-01
7 3 5.00000000000000000e-01
8 3 4.26776695296636865e-01
9 3 4.26776695296636865e-01
10 3 5.00000000000000000e-01
11 3 4.26776695296636865e-01
12 3 4.26776695296636865e-01
13 3 5.00000000000000000e-01
1 4 5.00000000000000000e-01
2 4 4.26776695296636865e-01
3 4 4.26776695296636865e-01
4 4 5.00000000000000000e-01
5 4 4.26776695296636865e-01
6 4 4.26776695296636865e-01
7 4 5.00000000000000000e-01
8 4 4.26776695296636865e-01
9 4 4.26776695296636865e-01
10 4 5.00000000000000000e-01
11 4 4.26776695296636865e-01
12 4 4.26776695296636865e-01
13 4 5.00000000000000000e-01
1 5 7.50000000000000000e-01
2 5 6.40165042944955243e-01
3 5 6.40165042944955243e-01
4 5 7.50000000000000000e-01
5 5 6.40165042944955243e-01
6 5 6.40165042944955243e-01
7 5 7.50000000000000000e-01
8 5 6.40165042944955243e-01
9 5 6.40165042944955243e-01
10 5 7.50000000000000000e-01
11 5 6.40165042944955243e-01
12 5 6.40165042944955243e-01
13 5 7.50000000000000000e-01
1 6 1.00000000000000000e+00
2 6 8.53553390593273731e-01
3 6 8.53553390593273731e-01
4 6 1.00000000000000000e+00
5 6 8.53553390593273731e-01
6 6 8.53553390593273731e-01
7 6 1.00000000000000000e+00
8 6 8.53553390593273731e-01
9 6 8.53553390593273731e-01
10 6 1.00000000000000000e+00
11 6 8.53553390593273731e-01
12 6 8.53553390593273731e-01
13 6 1.00000000000000000e+00
