%%MatrixMarket matrix coordinate  real general
18 18 324
1 1 1.00000000000000000e+00
2 1 1.00000000000000000e+00
3 1 9.91773362669283620e-01
4 1 9.74585237549167815e-01
5 1 9.47877166595474496e-01
6 1 9.11323581875453148e-01
7 1 8.64879707778836604e-01
8 1 8.08813898564044731e-01
9 1 7.43718433538229085e-01
10 1 6.70495128834866061e-01
11 1 5.90315496922953042e-01
12 1 5.04558928522401029e-01
13 1 4.14735640377990711e-01
14 1 3.22403165741168007e-01
15 1 2.29085538991423865e-01
16 1 1.36203080274779453e-01
17 1 4.50182704578985585e-02
18 1 6.12323399573676604e-17
1 2 1.03125000000000000e+00
2 2 1.03125000000000000e+00
3 2 1.02276628025269889e+00
4 2 1.00504102622257929e+00
5 2 9.77498328051583210e-01
6 2 9.39802443809060972e-01
7 2 8.91907198646925359e-01
8 2 8.34089332894171087e-01
9 2 7.66959634586298789e-01
10 2 6.91448101610955934e-01
11 2 6.08762856201795488e-01
12 2 5.20326395038726131e-01
13 2 4.27696129139802927e-01
14 2 3.32478264670579504e-01
15 2 2.36244462084905849e-01
16 2 1.40459426533366294e-01
17 2 4.64250914097078873e-02
18 2 6.31458505810354094e-17
1 3 1.09375000000000000e+00
2 3 1.09375000000000000e+00
3 3 1.08475211541952921e+00
4 3 1.06595260356940247e+00
5 3 1.03674065096380064e+00
6 3 9.96760167676276954e-01
7 3 9.45962180383102647e-01
8 3 8.84640201554424022e-01
9 3 8.13442036682438085e-01
10 3 7.33354047163135236e-01
11 3 6.45657574759480157e-01
12 3 5.51861328071376223e-01
13 3 4.53617106663427472e-01
14 3 3.52628462529402553e-01
15 3 2.50562308271869816e-01
16 3 1.48972119050540031e-01
17 3 4.92387333133265451e-02
18 3 6.69728718283709074e-17
1 4 1.15625000000000000e+00
2 4 1.15625000000000000e+00
3 4 1.14673795058635952e+00
4 4 1.12686418091622564e+00
5 4 1.09598297387601784e+00
6 4 1.05371789154349305e+00
7 4 1.00001716211927993e+00
8 4 9.35191070214676845e-01
9 4 8.59924438778577493e-01
10 4 7.75259992715314317e-01
11 4 6.82552293317164716e-01
12 4 5.83396261104026426e-01
13 4 4.79538084187051905e-01
14 4 3.72778660388225658e-01
15 4 2.64880154458833839e-01
16 4 1.57484811567713767e-01
17 4 5.20523752169452028e-02
18 4 7.07998930757063808e-17
1 5 1.21875000000000000e+00
2 5 1.21874999999999978e+00
3 5 1.20872378575318984e+00
4 5 1.18777575826304838e+00
5 5 1.15522529678823482e+00
6 5 1.11067561541070892e+00
7 5 1.05407214385545744e+00
8 5 9.85741938874929557e-01
9 5 9.06406840874716790e-01
10 5 8.17165938267493508e-01
11 5 7.19447011874849163e-01
12 5 6.14931194136676518e-01
13 5 5.05459061710676338e-01
14 5 3.92928858247048651e-01
15 5 2.79198000645797806e-01
16 5 1.65997504084887476e-01
17 5 5.48660171205638675e-02
18 5 7.46269143230418542e-17
1 6 1.28125000000000000e+00
2 6 1.28124999999999978e+00
3 6 1.27070962092002016e+00
4 6 1.24868733560987155e+00
5 6 1.21446761970045203e+00
6 6 1.16763333927792479e+00
7 6 1.10812712559163473e+00
8 6 1.03629280753518227e+00
9 6 9.52889242970856198e-01
10 6 8.59071883819672699e-01
11 6 7.56341730432533832e-01
12 6 6.46466127169326499e-01
13 6 5.31380039234300772e-01
14 6 4.13079056105871700e-01
15 6 2.93515846832761829e-01
16 6 1.74510196602061185e-01
17 6 5.76796590241825322e-02
18 6 7.84539355703773275e-17
1 7 1.34375000000000000e+00
2 7 1.34374999999999978e+00
3 7 1.33269545608685047e+00
4 7 1.30959891295669473e+00
5 7 1.27370994261266923e+00
6 7 1.22459106314514043e+00
7 7 1.16218210732781202e+00
8 7 1.08684367619543520e+00
9 7 9.99371645066995495e-01
10 7 9.00977829371851779e-01
11 7 7.93236448990218501e-01
12 7 6.78001060201976591e-01
13 7 5.57301016757925205e-01
14 7 4.33229253964694694e-01
15 7 3.07833693019725796e-01
16 7 1.83022889119234894e-01
17 7 6.04933009278012038e-02
18 7 8.22809568177128009e-17
1 8 1.40625000000000000e+00
2 8 1.40624999999999978e+00
3 8 1.39468129125368057e+00
4 8 1.37051049030351768e+00
5 8 1.33295226552488644e+00
6 8 1.28154878701235608e+00
7 8 1.21623708906398931e+00
8 8 1.13739454485568814e+00
9 8 1.04585404716313479e+00
10 8 9.42883774924030860e-01
11 8 8.30131167547903170e-01
12 8 7.09535993234626683e-01
13 8 5.83221994281549638e-01
14 8 4.53379451823517687e-01
15 8 3.22151539206689819e-01
16 8 1.91535581636408603e-01
17 8 6.33069428314198684e-02
18 8 8.61079780650482743e-17
1 9 1.46875000000000000e+00
2 9 1.46874999999999956e+00
3 9 1.45666712642051066e+00
4 9 1.43142206765034063e+00
5 9 1.39219458843710364e+00
6 9 1.33850651087957195e+00
7 9 1.27029207080016660e+00
8 9 1.18794541351594085e+00
9 9 1.09233644925927420e+00
10 9 9.84789720476209829e-01
11 9 8.67025886105587729e-01
12 9 7.41070926267276775e-01
13 9 6.09142971805173961e-01
14 9 4.73529649682340736e-01
15 9 3.36469385393653841e-01
16 9 2.00048274153582312e-01
17 9 6.61205847350385262e-02
18 9 8.99349993123837600e-17
1 10 1.53125000000000000e+00
2 10 1.53124999999999978e+00
3 10 1.51865296158734076e+00
4 10 1.49233364499716359e+00
5 10 1.45143691134932085e+00
6 10 1.39546423474678760e+00
7 10 1.32434705253634410e+00
8 10 1.23849628217619379e+00
9 10 1.13881885135541339e+00
10 10 1.02669566602838880e+00
11 10 9.03920604663272287e-01
12 10 7.72605859299926978e-01
13 10 6.35063949328798394e-01
14 10 4.93679847541163730e-01
15 10 3.50787231580617809e-01
16 10 2.08560966670756021e-01
17 10 6.89342266386571839e-02
18 10 9.37620205597192457e-17
1 11 1.59374999999999978e+00
2 11 1.59374999999999978e+00
3 11 1.58063879675417107e+00
4 11 1.55324522234398654e+00
5 11 1.51067923426153805e+00
6 11 1.45242195861400347e+00
7 11 1.37840203427252139e+00
8 11 1.28904715083644650e+00
9 11 1.18530125345155279e+00
10 11 1.06860161158056788e+00
11 11 9.40815323220956845e-01
12 11 8.04140792332577070e-01
13 11 6.60984926852422827e-01
14 11 5.13830045399986668e-01
15 11 3.65105077767581776e-01
16 11 2.17073659187929729e-01
17 11 7.17478685422758417e-02
18 11 9.75890418070547191e-17
1 12 1.65625000000000000e+00
2 12 1.65625000000000000e+00
3 12 1.64262463192100139e+00
4 12 1.61415679969080950e+00
5 12 1.56992155717375503e+00
6 12 1.50937968248121934e+00
7 12 1.43245701600869846e+00
8 12 1.33959801949669943e+00
9 12 1.23178365554769220e+00
10 12 1.11050755713274696e+00
11 12 9.77710041778641292e-01
12 12 8.35675725365227051e-01
13 12 6.86905904376047260e-01
14 12 5.33980243258809661e-01
15 12 3.79422923954545799e-01
16 12 2.25586351705103438e-01
17 12 7.45615104458944994e-02
18 12 1.01416063054390217e-16
1 13 1.71875000000000000e+00
2 13 1.71875000000000000e+00
3 13 1.70461046708783148e+00
4 13 1.67506837703763245e+00
5 13 1.62916388008597202e+00
6 13 1.56633740634843499e+00
7 13 1.48651199774487575e+00
8 13 1.39014888815695214e+00
9 13 1.27826605764383161e+00
10 13 1.15241350268492604e+00
11 13 1.01460476033632574e+00
12 13 8.67210658397877143e-01
13 13 7.12826881899671583e-01
14 13 5.54130441117632544e-01
15 13 3.93740770141509766e-01
16 13 2.34099044222277147e-01
17 13 7.73751523495131571e-02
18 13 1.05243084301725691e-16
1 14 1.78125000000000022e+00
2 14 1.78125000000000000e+00
3 14 1.76659630225466180e+00
4 14 1.73597995438445540e+00
5 14 1.68840620299818900e+00
6 14 1.62329513021565086e+00
7 14 1.54056697948105303e+00
8 14 1.44069975681720508e+00
9 14 1.32474845973997080e+00
10 14 1.19431944823710512e+00
11 14 1.05149947889401019e+00
12 14 8.98745591430527013e-01
13 14 7.38747859423296016e-01
14 14 5.74280638976455426e-01
15 14 4.08058616328473733e-01
16 14 2.42611736739450884e-01
17 14 8.01887942531318149e-02
18 14 1.09070105549061164e-16
1 15 1.84375000000000000e+00
2 15 1.84375000000000000e+00
3 15 1.82858213742149212e+00
4 15 1.79689153173127858e+00
5 15 1.74764852591040620e+00
6 15 1.68025285408286695e+00
7 15 1.59462196121723032e+00
8 15 1.49125062547745779e+00
9 15 1.37123086183610998e+00
10 15 1.23622539378928442e+00
11 15 1.08839419745169486e+00
12 15 9.30280524463176994e-01
13 15 7.64668836946920338e-01
14 15 5.94430836835278420e-01
15 15 4.22376462515437756e-01
16 15 2.51124429256624593e-01
17 15 8.30024361567504726e-02
18 15 1.12897126796396637e-16
1 16 1.90625000000000000e+00
2 16 1.90625000000000000e+00
3 16 1.89056797258832199e+00
4 16 1.85780310907810131e+00
5 16 1.80689084882262319e+00
6 16 1.73721057795008260e+00
7 16 1.64867694295340739e+00
8 16 1.54180149413771028e+00
9 16 1.41771326393224939e+00
10 16 1.27813133934146372e+00
11 16 1.12528891600937930e+00
12 16 9.61815457495827086e-01
13 16 7.90589814470544661e-01
14 16 6.14581034694101414e-01
15 16 4.36694308702401779e-01
16 16 2.59637121773798329e-01
17 16 8.58160780603691303e-02
18 16 1.16724148043732111e-16
1 17 1.96875000000000000e+00
2 17 1.96875000000000000e+00
3 17 1.95255380775515208e+00
4 17 1.91871468642492427e+00
5 17 1.86613317173484039e+00
6 17 1.79416830181729847e+00
7 17 1.70273192468958445e+00
8 17 1.59235236279796322e+00
9 17 1.46419566602838858e+00
10 17 1.32003728489364280e+00
11 17 1.16218363456706375e+00
12 17 9.93350390528477067e-01
13 17 8.16510791994169094e-01
14 17 6.34731232552924407e-01
15 17 4.51012154889365746e-01
16 17 2.68149814290972066e-01
17 17 8.86297199639877881e-02
18 17 1.20551169291067584e-16
1 18 2.00000000000000000e+00
2 18 2.00000000000000000e+00
3 18 1.98354672533856724e+00
4 18 1.94917047509833563e+00
5 18 1.89575433319094899e+00
6 18 1.82264716375090630e+00
7 18 1.72975941555767321e+00
8 18 1.61762779712808946e+00
9 18 1.48743686707645817e+00
10 18 1.34099025766973212e+00
11 18 1.18063099384590608e+00
12 18 1.00911785704480206e+00
13 18 8.29471280755981422e-01
14 18 6.44806331482336015e-01
15 18 4.58171077982847730e-01
16 18 2.72406160549558907e-01
17 18 9.00365409157971169e-02
18 18 1.22464679914735321e-16
