%%MatrixMarket matrix coordinate  real general
18 18 324
1 1 0.00000000000000000e+00
2 1 4.50182704578984960e-02
3 1 1.36203080274779370e-01
4 1 2.29085538991423809e-01
5 1 3.22403165741168007e-01
6 1 4.14735640377990711e-01
7 1 5.04558928522400918e-01
8 1 5.90315496922952931e-01
9 1 6.70495128834865950e-01
10 1 7.43718433538229085e-01
11 1 8.08813898564044842e-01
12 1 8.64879707778836715e-01
13 1 9.11323581875453037e-01
14 1 9.47877166595474496e-01
15 1 9.74585237549167815e-01
16 1 9.91773362669283620e-01
17 1 1.00000000000000000e+00
18 1 1.00000000000000000e+00
1 2 0.00000000000000000e+00
2 2 4.64250914097078110e-02
3 2 1.40459426533366238e-01
4 2 2.36244462084905793e-01
5 2 3.32478264670579560e-01
6 2 4.27696129139802872e-01
7 2 5.20326395038726131e-01
8 2 6.08762856201795266e-01
9 2 6.91448101610955601e-01
10 2 7.66959634586298789e-01
11 2 8.34089332894171309e-01
12 2 8.91907198646925359e-01
13 2 9.39802443809060972e-01
14 2 9.77498328051583099e-01
15 2 1.00504102622257951e+00
16 2 1.02276628025269845e+00
17 2 1.03125000000000000e+00
18 2 1.03125000000000000e+00
1 3 0.00000000000000000e+00
2 3 4.92387333133264757e-02
3 3 1.48972119050539920e-01
4 3 2.50562308271869760e-01
5 3 3.52628462529402553e-01
6 3 4.53617106663427361e-01
7 3 5.51861328071376112e-01
8 3 6.45657574759479935e-01
9 3 7.33354047163134681e-01
10 3 8.13442036682438085e-01
11 3 8.84640201554424022e-01
12 3 9.45962180383102647e-01
13 3 9.96760167676276954e-01
14 3 1.03674065096380041e+00
15 3 1.06595260356940247e+00
16 3 1.08475211541952854e+00
17 3 1.09375000000000000e+00
18 3 1.09375000000000000e+00
1 4 0.00000000000000000e+00
2 4 5.20523752169451265e-02
3 4 1.57484811567713628e-01
4 4 2.64880154458833783e-01
5 4 3.72778660388225491e-01
6 4 4.79538084187051794e-01
7 4 5.83396261104026093e-01
8 4 6.82552293317164382e-01
9 4 7.75259992715313762e-01
10 4 8.59924438778577493e-01
11 4 9.35191070214676734e-01
12 4 1.00001716211928016e+00
13 4 1.05371789154349282e+00
14 4 1.09598297387601762e+00
15 4 1.12686418091622564e+00
16 4 1.14673795058635908e+00
17 4 1.15625000000000000e+00
18 4 1.15625000000000000e+00
1 5 0.00000000000000000e+00
2 5 5.48660171205637773e-02
3 5 1.65997504084887365e-01
4 5 2.79198000645797750e-01
5 5 3.92928858247048540e-01
6 5 5.05459061710676227e-01
7 5 6.14931194136676185e-01
8 5 7.19447011874848830e-01
9 5 8.17165938267492842e-01
10 5 9.06406840874716790e-01
11 5 9.85741938874929557e-01
12 5 1.05407214385545744e+00
13 5 1.11067561541070869e+00
14 5 1.15522529678823482e+00
15 5 1.18777575826304860e+00
16 5 1.20872378575318917e+00
17 5 1.21874999999999978e+00
18 5 1.21875000000000000e+00
1 6 0.00000000000000000e+00
2 6 5.76796590241824281e-02
3 6 1.74510196602061074e-01
4 6 2.93515846832761718e-01
5 6 4.13079056105871478e-01
6 6 5.31380039234300550e-01
7 6 6.46466127169326277e-01
8 6 7.56341730432533499e-01
9 6 8.59071883819671922e-01
10 6 9.52889242970856198e-01
11 6 1.03629280753518227e+00
12 6 1.10812712559163451e+00
13 6 1.16763333927792456e+00
14 6 1.21446761970045203e+00
15 6 1.24868733560987155e+00
16 6 1.27070962092001949e+00
17 6 1.28124999999999978e+00
18 6 1.28125000000000000e+00
1 7 0.00000000000000000e+00
2 7 6.04933009278010858e-02
3 7 1.83022889119234811e-01
4 7 3.07833693019725685e-01
5 7 4.33229253964694472e-01
6 7 5.57301016757924872e-01
7 7 6.78001060201976369e-01
8 7 7.93236448990217946e-01
9 7 9.00977829371851002e-01
10 7 9.99371645066995495e-01
11 7 1.08684367619543520e+00
12 7 1.16218210732781158e+00
13 7 1.22459106314514043e+00
14 7 1.27370994261266923e+00
15 7 1.30959891295669451e+00
16 7 1.33269545608684958e+00
17 7 1.34374999999999978e+00
18 7 1.34375000000000000e+00
1 8 0.00000000000000000e+00
2 8 6.33069428314197435e-02
3 8 1.91535581636408547e-01
4 8 3.22151539206689652e-01
5 8 4.53379451823517465e-01
6 8 5.83221994281549305e-01
7 8 7.09535993234626350e-01
8 8 8.30131167547902615e-01
9 8 9.42883774924030194e-01
10 8 1.04585404716313479e+00
11 8 1.13739454485568814e+00
12 8 1.21623708906398886e+00
13 8 1.28154878701235608e+00
14 8 1.33295226552488622e+00
15 8 1.37051049030351746e+00
16 8 1.39468129125368012e+00
17 8 1.40624999999999978e+00
18 8 1.40625000000000000e+00
1 9 0.00000000000000000e+00
2 9 6.61205847350384013e-02
3 9 2.00048274153582256e-01
4 9 3.36469385393653675e-01
5 9 4.73529649682340459e-01
6 9 6.09142971805173850e-01
7 9 7.41070926267276442e-01
8 9 8.67025886105587063e-01
9 9 9.84789720476209274e-01
10 9 1.09233644925927420e+00
11 9 1.18794541351594085e+00
12 9 1.27029207080016615e+00
13 9 1.33850651087957195e+00
14 9 1.39219458843710342e+00
15 9 1.43142206765034041e+00
16 9 1.45666712642051022e+00
17 9 1.46874999999999956e+00
18 9 1.46875000000000000e+00
1 10 0.00000000000000000e+00
2 10 6.89342266386570590e-02
3 10 2.08560966670755965e-01
4 10 3.50787231580617753e-01
5 10 4.93679847541163508e-01
6 10 6.35063949328798283e-01
7 10 7.72605859299926534e-01
8 10 9.03920604663271732e-01
9 10 1.02669566602838835e+00
10 10 1.13881885135541339e+00
11 10 1.23849628217619379e+00
12 10 1.32434705253634344e+00
13 10 1.39546423474678760e+00
14 10 1.45143691134932062e+00
15 10 1.49233364499716337e+00
16 10 1.51865296158734053e+00
17 10 1.53124999999999978e+00
18 10 1.53125000000000000e+00
1 11 0.00000000000000000e+00
2 11 7.17478685422757306e-02
3 11 2.17073659187929702e-01
4 11 3.65105077767581776e-01
5 11 5.13830045399986446e-01
6 11 6.60984926852422716e-01
7 11 8.04140792332576626e-01
8 11 9.40815323220956290e-01
9 11 1.06860161158056766e+00
10 11 1.18530125345155279e+00
11 11 1.28904715083644672e+00
12 11 1.37840203427252095e+00
13 11 1.45242195861400325e+00
14 11 1.51067923426153783e+00
15 11 1.55324522234398632e+00
16 11 1.58063879675417063e+00
17 11 1.59374999999999978e+00
18 11 1.59374999999999978e+00
1 12 0.00000000000000000e+00
2 12 7.45615104458943884e-02
3 12 2.25586351705103383e-01
4 12 3.79422923954545799e-01
5 12 5.33980243258809439e-01
6 12 6.86905904376047149e-01
7 12 8.35675725365226607e-01
8 12 9.77710041778640848e-01
9 12 1.11050755713274696e+00
10 12 1.23178365554769220e+00
11 12 1.33959801949669943e+00
12 12 1.43245701600869824e+00
13 12 1.50937968248121912e+00
14 12 1.56992155717375503e+00
15 12 1.61415679969080927e+00
16 12 1.64262463192100094e+00
17 12 1.65625000000000000e+00
18 12 1.65625000000000000e+00
1 13 0.00000000000000000e+00
2 13 7.73751523495130322e-02
3 13 2.34099044222277092e-01
4 13 3.93740770141509766e-01
5 13 5.54130441117632433e-01
6 13 7.12826881899671583e-01
7 13 8.67210658397876588e-01
8 13 1.01460476033632552e+00
9 13 1.15241350268492604e+00
10 13 1.27826605764383161e+00
11 13 1.39014888815695237e+00
12 13 1.48651199774487552e+00
13 13 1.56633740634843499e+00
14 13 1.62916388008597202e+00
15 13 1.67506837703763223e+00
16 13 1.70461046708783126e+00
17 13 1.71875000000000000e+00
18 13 1.71875000000000000e+00
1 14 0.00000000000000000e+00
2 14 8.01887942531316900e-02
3 14 2.42611736739450828e-01
4 14 4.08058616328473733e-01
5 14 5.74280638976455426e-01
6 14 7.38747859423296016e-01
7 14 8.98745591430526680e-01
8 14 1.05149947889401019e+00
9 14 1.19431944823710512e+00
10 14 1.32474845973997080e+00
11 14 1.44069975681720530e+00
12 14 1.54056697948105281e+00
13 14 1.62329513021565086e+00
14 14 1.68840620299818922e+00
15 14 1.73597995438445540e+00
16 14 1.76659630225466158e+00
17 14 1.78125000000000000e+00
18 14 1.78125000000000022e+00
1 15 0.00000000000000000e+00
2 15 8.30024361567503338e-02
3 15 2.51124429256624537e-01
4 15 4.22376462515437701e-01
5 15 5.94430836835278420e-01
6 15 7.64668836946920560e-01
7 15 9.30280524463176772e-01
8 15 1.08839419745169463e+00
9 15 1.23622539378928442e+00
10 15 1.37123086183610998e+00
11 15 1.49125062547745801e+00
12 15 1.59462196121723010e+00
13 15 1.68025285408286651e+00
14 15 1.74764852591040620e+00
15 15 1.79689153173127858e+00
16 15 1.82858213742149189e+00
17 15 1.84375000000000000e+00
18 15 1.84375000000000000e+00
1 16 0.00000000000000000e+00
2 16 8.58160780603689916e-02
3 16 2.59637121773798218e-01
4 16 4.36694308702401668e-01
5 16 6.14581034694101414e-01
6 16 7.90589814470544883e-01
7 16 9.61815457495826753e-01
8 16 1.12528891600937908e+00
9 16 1.27813133934146350e+00
10 16 1.41771326393224939e+00
11 16 1.54180149413771073e+00
12 16 1.64867694295340717e+00
13 16 1.73721057795008216e+00
14 16 1.80689084882262319e+00
15 16 1.85780310907810153e+00
16 16 1.89056797258832199e+00
17 16 1.90625000000000000e+00
18 16 1.90625000000000000e+00
1 17 0.00000000000000000e+00
2 17 8.86297199639876632e-02
3 17 2.68149814290971900e-01
4 17 4.51012154889365635e-01
5 17 6.34731232552924518e-01
6 17 8.16510791994169205e-01
7 17 9.93350390528476734e-01
8 17 1.16218363456706375e+00
9 17 1.32003728489364258e+00
10 17 1.46419566602838858e+00
11 17 1.59235236279796344e+00
12 17 1.70273192468958445e+00
13 17 1.79416830181729825e+00
14 17 1.86613317173484039e+00
15 17 1.91871468642492427e+00
16 17 1.95255380775515208e+00
17 17 1.96875000000000000e+00
18 17 1.96875000000000000e+00
1 18 0.00000000000000000e+00
2 18 9.00365409157969920e-02
3 18 2.72406160549558740e-01
4 18 4.58171077982847619e-01
5 18 6.44806331482336015e-01
6 18 8.29471280755981422e-01
7 18 1.00911785704480184e+00
8 18 1.18063099384590586e+00
9 18 1.34099025766973190e+00
10 18 1.48743686707645817e+00
11 18 1.61762779712808968e+00
12 18 1.72975941555767343e+00
13 18 1.82264716375090607e+00
14 18 1.89575433319094899e+00
15 18 1.94917047509833563e+00
16 18 1.98354672533856724e+00
17 18 2.00000000000000000e+00
18 18 2.00000000000000000e+00
