%%MatrixMarket matrix coordinate  real general
18 18 324
1 1 1.00000000000000000e+00
2 1 9.81694173824159244e-01
3 1 9.49658978016437949e-01
4 1 9.22200238752676649e-01
5 1 8.99317956032875676e-01
6 1 8.81012129857034920e-01
7 1 8.67282760225154270e-01
8 1 8.58129847137233837e-01
9 1 8.53553390593273731e-01
10 1 8.53553390593273731e-01
11 1 8.58129847137233948e-01
12 1 8.67282760225154492e-01
13 1 8.81012129857035142e-01
14 1 8.99317956032875898e-01
15 1 9.22200238752676760e-01
16 1 9.49658978016437838e-01
17 1 9.81694173824159244e-01
18 1 1.00000000000000000e+00
1 2 1.00000000000000000e+00
2 2 9.81694173824159355e-01
3 2 9.49658978016437949e-01
4 2 9.22200238752676760e-01
5 2 8.99317956032875676e-01
6 2 8.81012129857035031e-01
7 2 8.67282760225154270e-01
8 2 8.58129847137233837e-01
9 2 8.53553390593273731e-01
10 2 8.53553390593273731e-01
11 2 8.58129847137233948e-01
12 2 8.67282760225154492e-01
13 2 8.81012129857035142e-01
14 2 8.99317956032875898e-01
15 2 9.22200238752676871e-01
16 2 9.49658978016437949e-01
17 2 9.81694173824159355e-01
18 2 1.00000000000000000e+00
1 3 1.00000000000000000e+00
2 3 9.81694173824159355e-01
3 3 9.49658978016437949e-01
4 3 9.22200238752676871e-01
5 3 8.99317956032875676e-01
6 3 8.81012129857035031e-01
7 3 8.67282760225154270e-01
8 3 8.58129847137233837e-01
9 3 8.53553390593273731e-01
10 3 8.53553390593273731e-01
11 3 8.58129847137233837e-01
12 3 8.67282760225154492e-01
13 3 8.81012129857035031e-01
14 3 8.99317956032875898e-01
15 3 9.22200238752677093e-01
16 3 9.49658978016437949e-01
17 3 9.81694173824159355e-01
18 3 1.00000000000000000e+00
1 4 1.00000000000000000e+00
2 4 9.81694173824159355e-01
3 4 9.49658978016437949e-01
4 4 9.22200238752676871e-01
5 4 8.99317956032875676e-01
6 4 8.81012129857035031e-01
7 4 8.67282760225154270e-01
8 4 8.58129847137233837e-01
9 4 8.53553390593273731e-01
10 4 8.53553390593273731e-01
11 4 8.58129847137233948e-01
12 4 8.67282760225154492e-01
13 4 8.81012129857035031e-01
14 4 8.99317956032875898e-01
15 4 9.22200238752676982e-01
16 4 9.49658978016437727e-01
17 4 9.81694173824159355e-01
18 4 1.00000000000000000e+00
1 5 1.00000000000000000e+00
2 5 9.81694173824159355e-01
3 5 9.49658978016437949e-01
4 5 9.22200238752676982e-01
5 5 8.99317956032875676e-01
6 5 8.81012129857035031e-01
7 5 8.67282760225154159e-01
8 5 8.58129847137233948e-01
9 5 8.53553390593273842e-01
10 5 8.53553390593273842e-01
11 5 8.58129847137233948e-01
12 5 8.67282760225154603e-01
13 5 8.81012129857035031e-01
14 5 8.99317956032875898e-01
15 5 9.22200238752676982e-01
16 5 9.49658978016437727e-01
17 5 9.81694173824159355e-01
18 5 1.00000000000000000e+00
1 6 1.00000000000000000e+00
2 6 9.81694173824159355e-01
3 6 9.49658978016437949e-01
4 6 9.22200238752676982e-01
5 6 8.99317956032875787e-01
6 6 8.81012129857035031e-01
7 6 8.67282760225154159e-01
8 6 8.58129847137233948e-01
9 6 8.53553390593273842e-01
10 6 8.53553390593273842e-01
11 6 8.58129847137233948e-01
12 6 8.67282760225154714e-01
13 6 8.81012129857035142e-01
14 6 8.99317956032875898e-01
15 6 9.22200238752676982e-01
16 6 9.49658978016437727e-01
17 6 9.81694173824159355e-01
18 6 1.00000000000000000e+00
1 7 1.00000000000000000e+00
2 7 9.81694173824159244e-01
3 7 9.49658978016437838e-01
4 7 9.22200238752676871e-01
5 7 8.99317956032875676e-01
6 7 8.81012129857035031e-01
7 7 8.67282760225154159e-01
8 7 8.58129847137233837e-01
9 7 8.53553390593273731e-01
10 7 8.53553390593273731e-01
11 7 8.58129847137233837e-01
12 7 8.67282760225154714e-01
13 7 8.81012129857035031e-01
14 7 8.99317956032875898e-01
15 7 9.22200238752676871e-01
16 7 9.49658978016437727e-01
17 7 9.81694173824159244e-01
18 7 1.00000000000000000e+00
1 8 1.00000000000000000e+00
2 8 9.81694173824159244e-01
3 8 9.49658978016437838e-01
4 8 9.22200238752676871e-01
5 8 8.99317956032875676e-01
6 8 8.81012129857035031e-01
7 8 8.67282760225154270e-01
8 8 8.58129847137233837e-01
9 8 8.53553390593273731e-01
10 8 8.53553390593273731e-01
11 8 8.58129847137233837e-01
12 8 8.67282760225154603e-01
13 8 8.81012129857035031e-01
14 8 8.99317956032875898e-01
15 8 9.22200238752676871e-01
16 8 9.49658978016437727e-01
17 8 9.81694173824159244e-01
18 8 1.00000000000000000e+00
1 9 1.00000000000000000e+00
2 9 9.81694173824159244e-01
3 9 9.49658978016437838e-01
4 9 9.22200238752676871e-01
5 9 8.99317956032875787e-01
6 9 8.81012129857035031e-01
7 9 8.67282760225154270e-01
8 9 8.58129847137233948e-01
9 9 8.53553390593273842e-01
10 9 8.53553390593273842e-01
11 9 8.58129847137233948e-01
12 9 8.67282760225154603e-01
13 9 8.81012129857035031e-01
14 9 8.99317956032875898e-01
15 9 9.22200238752676871e-01
16 9 9.49658978016437838e-01
17 9 9.81694173824159244e-01
18 9 1.00000000000000000e+00
1 10 1.00000000000000000e+00
2 10 9.81694173824159244e-01
3 10 9.49658978016437949e-01
4 10 9.22200238752676760e-01
5 10 8.99317956032875787e-01
6 10 8.81012129857035031e-01
7 10 8.67282760225154270e-01
8 10 8.58129847137233948e-01
9 10 8.53553390593273953e-01
10 10 8.53553390593273953e-01
11 10 8.58129847137233948e-01
12 10 8.67282760225154603e-01
13 10 8.81012129857035031e-01
14 10 8.99317956032875898e-01
15 10 9.22200238752676871e-01
16 10 9.49658978016437838e-01
17 10 9.81694173824159244e-01
18 10 1.00000000000000000e+00
1 11 1.00000000000000000e+00
2 11 9.81694173824159244e-01
3 11 9.49658978016437838e-01
4 11 9.22200238752676760e-01
5 11 8.99317956032875787e-01
6 11 8.81012129857034920e-01
7 11 8.67282760225154270e-01
8 11 8.58129847137233837e-01
9 11 8.53553390593273842e-01
10 11 8.53553390593273842e-01
11 11 8.58129847137233837e-01
12 11 8.67282760225154492e-01
13 11 8.81012129857035031e-01
14 11 8.99317956032875898e-01
15 11 9.22200238752676871e-01
16 11 9.49658978016437838e-01
17 11 9.81694173824159244e-01
18 11 1.00000000000000000e+00
1 12 1.00000000000000000e+00
2 12 9.81694173824159355e-01
3 12 9.49658978016437949e-01
4 12 9.22200238752676760e-01
5 12 8.99317956032875898e-01
6 12 8.81012129857034920e-01
7 12 8.67282760225154381e-01
8 12 8.58129847137233837e-01
9 12 8.53553390593273842e-01
10 12 8.53553390593273842e-01
11 12 8.58129847137233948e-01
12 12 8.67282760225154603e-01
13 12 8.81012129857035142e-01
14 12 8.99317956032875898e-01
15 12 9.22200238752676871e-01
16 12 9.49658978016437949e-01
17 12 9.81694173824159355e-01
18 12 1.00000000000000000e+00
1 13 1.00000000000000000e+00
2 13 9.81694173824159355e-01
3 13 9.49658978016437949e-01
4 13 9.22200238752676760e-01
5 13 8.99317956032875898e-01
6 13 8.81012129857034920e-01
7 13 8.67282760225154381e-01
8 13 8.58129847137233837e-01
9 13 8.53553390593273842e-01
10 13 8.53553390593273842e-01
11 13 8.58129847137233948e-01
12 13 8.67282760225154492e-01
13 13 8.81012129857035142e-01
14 13 8.99317956032875898e-01
15 13 9.22200238752676871e-01
16 13 9.49658978016437949e-01
17 13 9.81694173824159355e-01
18 13 1.00000000000000000e+00
1 14 1.00000000000000000e+00
2 14 9.81694173824159355e-01
3 14 9.49658978016437949e-01
4 14 9.22200238752676760e-01
5 14 8.99317956032875898e-01
6 14 8.81012129857034920e-01
7 14 8.67282760225154381e-01
8 14 8.58129847137233837e-01
9 14 8.53553390593273953e-01
10 14 8.53553390593273953e-01
11 14 8.58129847137233948e-01
12 14 8.67282760225154492e-01
13 14 8.81012129857035142e-01
14 14 8.99317956032876009e-01
15 14 9.22200238752676871e-01
16 14 9.49658978016437949e-01
17 14 9.81694173824159355e-01
18 14 1.00000000000000000e+00
1 15 1.00000000000000000e+00
2 15 9.81694173824159355e-01
3 15 9.49658978016437949e-01
4 15 9.22200238752676649e-01
5 15 8.99317956032875787e-01
6 15 8.81012129857034920e-01
7 15 8.67282760225154381e-01
8 15 8.58129847137233837e-01
9 15 8.53553390593273842e-01
10 15 8.53553390593273842e-01
11 15 8.58129847137233948e-01
12 15 8.67282760225154492e-01
13 15 8.81012129857035142e-01
14 15 8.99317956032875898e-01
15 15 9.22200238752676760e-01
16 15 9.49658978016437949e-01
17 15 9.81694173824159355e-01
18 15 1.00000000000000000e+00
1 16 1.00000000000000000e+00
2 16 9.81694173824159244e-01
3 16 9.49658978016437949e-01
4 16 9.22200238752676649e-01
5 16 8.99317956032875676e-01
6 16 8.81012129857034920e-01
7 16 8.67282760225154270e-01
8 16 8.58129847137233837e-01
9 16 8.53553390593273731e-01
10 16 8.53553390593273731e-01
11 16 8.58129847137233948e-01
12 16 8.67282760225154492e-01
13 16 8.81012129857035142e-01
14 16 8.99317956032875898e-01
15 16 9.22200238752676760e-01
16 16 9.49658978016437838e-01
17 16 9.81694173824159244e-01
18 16 1.00000000000000000e+00
1 17 1.00000000000000000e+00
2 17 9.81694173824159244e-01
3 17 9.49658978016437949e-01
4 17 9.22200238752676649e-01
5 17 8.99317956032875676e-01
6 17 8.81012129857034920e-01
7 17 8.67282760225154270e-01
8 17 8.58129847137233837e-01
9 17 8.53553390593273731e-01
10 17 8.53553390593273731e-01
11 17 8.58129847137233948e-01
12 17 8.67282760225154492e-01
13 17 8.81012129857035142e-01
14 17 8.99317956032875898e-01
15 17 9.22200238752676760e-01
16 17 9.49658978016437838e-01
17 17 9.81694173824159244e-01
18 17 1.00000000000000000e+00
1 18 1.00000000000000000e+00
2 18 9.81694173824159244e-01
3 18 9.49658978016437949e-01
4 18 9.22200238752676649e-01
5 18 8.99317956032875676e-01
6 18 8.81012129857034920e-01
7 18 8.67282760225154270e-01
8 18 8.58129847137233837e-01
9 18 8.53553390593273731e-01
10 18 8.53553390593273731e-01
11 18 8.58129847137233948e-01
12 18 8.67282760225154492e-01
13 18 8.81012129857035142e-01
14 18 8.99317956032875898e-01
15 18 9.22200238752676760e-01
16 18 9.49658978016437838e-01
17 18 9.81694173824159244e-01
18 18 1.00000000000000000e+00
