%%MatrixMarket matrix coordinate  real general
6 6 36
1 1 1.00000000000000000e+00
2 1 1.00000000000000000e+00
3 1 8.53553390593273842e-01
4 1 5.60660171779821415e-01
5 1 1.90743569830546272e-01
6 1 6.12323399573676604e-17
1 2 1.12500000000000000e+00
2 2 1.12500000000000022e+00
3 2 9.60247564417433197e-01
4 2 6.30742693252299147e-01
5 2 2.14586516059364546e-01
6 2 6.88863824520386194e-17
1 3 1.37500000000000000e+00
2 3 1.37500000000000000e+00
3 3 1.17363591206575157e+00
4 3 7.70907736197254501e-01
5 3 2.62272408517001177e-01
6 3 8.41944674413805376e-17
1 4 1.62500000000000000e+00
2 4 1.62500000000000000e+00
3 4 1.38702425971407006e+00
4 4 9.11072779142209854e-01
5 4 3.09958300974637668e-01
6 4 9.95025524307224435e-17
1 5 1.87500000000000000e+00
2 5 1.87500000000000000e+00
3 5 1.60041260736238855e+00
4 5 1.05123782208716521e+00
5 5 3.57644193432274216e-01
6 5 1.14810637420064349e-16
1 6 2.00000000000000000e+00
2 6 2.00000000000000000e+00
3 6 1.70710678118654768e+00
4 6 1.12132034355964283e+00
5 6 3.81487139661092545e-01
6 6 1.22464679914735321e-16
