%%MatrixMarket matrix coordinate  real general
6 6 36
1 1 0.00000000000000000e+00
2 1 1.90743569830546189e-01
3 1 5.60660171779821193e-01
4 1 8.53553390593273731e-01
5 1 1.00000000000000000e+00
6 1 1.00000000000000000e+00
1 2 0.00000000000000000e+00
2 2 2.14586516059364490e-01
3 2 6.30742693252298925e-01
4 2 9.60247564417433086e-01
5 2 1.12500000000000000e+00
6 2 1.12500000000000000e+00
1 3 0.00000000000000000e+00
2 3 2.62272408517001065e-01
3 3 7.70907736197254279e-01
4 3 1.17363591206575135e+00
5 3 1.37500000000000022e+00
6 3 1.37500000000000000e+00
1 4 0.00000000000000000e+00
2 4 3.09958300974637613e-01
3 4 9.11072779142209632e-01
4 4 1.38702425971406962e+00
5 4 1.62500000000000000e+00
6 4 1.62500000000000000e+00
1 5 0.00000000000000000e+00
2 5 3.57644193432274216e-01
3 5 1.05123782208716499e+00
4 5 1.60041260736238811e+00
5 5 1.87500000000000000e+00
6 5 1.87500000000000000e+00
1 6 0.00000000000000000e+00
2 6 3.81487139661092489e-01
3 6 1.12132034355964261e+00
4 6 1.70710678118654746e+00
5 6 2.00000000000000000e+00
6 6 2.00000000000000000e+00
