%%MatrixMarket matrix coordinate  real general
6 6 36
1 1 1.00000000000000000e+00
2 1 9.26776695296636976e-01
3 1 8.53553390593273953e-01
4 1 8.53553390593273731e-01
5 1 9.26776695296636865e-01
6 1 1.00000000000000000e+00
1 2 1.00000000000000000e+00
2 2 9.26776695296636976e-01
3 2 8.53553390593273953e-01
4 2 8.53553390593273731e-01
5 2 9.26776695296636865e-01
6 2 1.00000000000000000e+00
1 3 1.00000000000000000e+00
2 3 9.26776695296636976e-01
3 3 8.53553390593273953e-01
4 3 8.53553390593273731e-01
5 3 9.26776695296636754e-01
6 3 1.00000000000000000e+00
1 4 1.00000000000000000e+00
2 4 9.26776695296636976e-01
3 4 8.53553390593273953e-01
4 4 8.53553390593273731e-01
5 4 9.26776695296636865e-01
6 4 1.00000000000000000e+00
1 5 1.00000000000000000e+00
2 5 9.26776695296636976e-01
3 5 8.53553390593273953e-01
4 5 8.53553390593273731e-01
5 5 9.26776695296636865e-01
6 5 1.00000000000000000e+00
1 6 1.00000000000000000e+00
2 6 9.26776695296636976e-01
3 6 8.53553390593273953e-01
4 6 8.53553390593273731e-01
5 6 9.26776695296636865e-01
6 6 1.00000000000000000e+00
