%%MatrixMarket matrix coordinate  real general
66 66 4356
1 1 1.00000000000000000e+00
2 1 1.00000000000000000e+00
3 1 9.99505065172289875e-01
4 1 9.98502167696089238e-01
5 1 9.96978709932096252e-01
6 1 9.94922581083656166e-01
7 1 9.92322214675400383e-01
8 1 9.89166646534740290e-01
9 1 9.85445572935474745e-01
10 1 9.81149408538382395e-01
11 1 9.76269343741512752e-01
12 1 9.70797401033460017e-01
13 1 9.64726489926684527e-01
14 1 9.58050460035424045e-01
15 1 9.50764151854359474e-01
16 1 9.42863444790385752e-01
17 1 9.34345302000963662e-01
18 1 9.25207811598888430e-01
19 1 9.15450223795161167e-01
20 1 9.05072983569132461e-01
21 1 8.94077758478278195e-01
22 1 8.82467461248821583e-01
23 1 8.70246266822811365e-01
24 1 8.57419623576937351e-01
25 1 8.43994258472975267e-01
26 1 8.29978175948824726e-01
27 1 8.15380650412089736e-01
28 1 8.00212212254374888e-01
29 1 7.84484627363206788e-01
30 1 7.68210870168915094e-01
31 1 7.51405090325053426e-01
32 1 7.34082573182116893e-01
33 1 7.16259694274468006e-01
34 1 6.97953868098627139e-01
35 1 6.79183491516489379e-01
36 1 6.59967882168751241e-01
37 1 6.40327212331075035e-01
38 1 6.20282438687554838e-01
39 1 5.99855228532266360e-01
40 1 5.79067882939564682e-01
41 1 5.57943257466944398e-01
42 1 5.36504680970433689e-01
43 1 5.14775873121514183e-01
44 1 4.92780861216444432e-01
45 1 4.70543896863739375e-01
46 1 4.48089373123660151e-01
47 1 4.25441742655275290e-01
48 1 4.02625437402412523e-01
49 1 3.79664790320192236e-01
50 1 3.56583959609443613e-01
51 1 3.33406855887832920e-01
52 1 3.10157072684705992e-01
53 1 2.86857820602209157e-01
54 1 2.63531865438958179e-01
55 1 2.40201470525114175e-01
56 1 2.16888343469921779e-01
57 1 1.93613587475247650e-01
58 1 1.70397657322060692e-01
59 1 1.47260320091698038e-01
60 1 1.24220620640672769e-01
61 1 1.01296851807142096e-01
62 1 7.85065292893412647e-02
63 1 5.58663711015896791e-02
64 1 3.33922814821176195e-02
65 1 1.10993390990935473e-02
66 1 6.12323399573676604e-17
1 2 1.00781250000000000e+00
2 2 1.00781250000000000e+00
3 2 1.00731369849394836e+00
4 2 1.00630296588121482e+00
5 2 1.00476760610344051e+00
6 2 1.00269541374837234e+00
7 2 1.00007473197755203e+00
8 2 9.96894510960792846e-01
9 2 9.93144366474033258e-01
10 2 9.88814638292588532e-01
11 2 9.83896447989493383e-01
12 2 9.78381755729033853e-01
13 2 9.72263415629236794e-01
14 2 9.65535229254450789e-01
15 2 9.58191996790721423e-01
16 2 9.50229565452810565e-01
17 2 9.41644874672846188e-01
18 2 9.32435997627004687e-01
19 2 9.22602178668560979e-01
20 2 9.12143866253266378e-01
21 2 9.01062740966389608e-01
22 2 8.89361738289828008e-01
23 2 8.77045065782364408e-01
24 2 8.64118214386132122e-01
25 2 8.50587963617295384e-01
26 2 8.36462380448424914e-01
27 2 8.21750811743434117e-01
28 2 8.06463870162612229e-01
29 2 7.90613413514481889e-01
30 2 7.74212517592109628e-01
31 2 7.57275442593217885e-01
32 2 7.39817593285102215e-01
33 2 7.21855473135987191e-01
34 2 7.03406632693147738e-01
35 2 6.84489612543961901e-01
36 2 6.65123881248194659e-01
37 2 6.45329768677411653e-01
38 2 6.25128395239801238e-01
39 2 6.04541597505174666e-01
40 2 5.83591850775030063e-01
41 2 5.62302189165904909e-01
42 2 5.40696123790515237e-01
43 2 5.18797559630275962e-01
44 2 4.96630711694697913e-01
45 2 4.74220021057987384e-01
46 2 4.51590071351188727e-01
47 2 4.28765506269769558e-01
48 2 4.05770948632118822e-01
49 2 3.82630921494568732e-01
50 2 3.59369771793892401e-01
51 2 3.36011596949456648e-01
52 2 3.12580174815055289e-01
53 2 2.89098897325663851e-01
54 2 2.65590708137700027e-01
55 2 2.42078044513591661e-01
56 2 2.18582783653280516e-01
57 2 1.95126193627398026e-01
58 2 1.71728889019889308e-01
59 2 1.48410791342414444e-01
60 2 1.25191094239428036e-01
61 2 1.02088233461885391e-01
62 2 7.91198615494142360e-02
63 2 5.63028271258208465e-02
64 2 3.36531586811966710e-02
65 2 1.11860526858052148e-02
66 2 6.17107176132846069e-17
1 3 1.02343750000000000e+00
2 3 1.02343749999999978e+00
3 3 1.02293096513726511e+00
4 3 1.02190456225146620e+00
5 3 1.02034539844612970e+00
6 3 1.01824107907780448e+00
7 3 1.01557976658185511e+00
8 3 1.01235023981289807e+00
9 3 1.00854195355115017e+00
10 3 1.00414509780100070e+00
11 3 9.99150656485454425e-01
12 3 9.93550465120181747e-01
13 3 9.87337267034341326e-01
14 3 9.80504767692504386e-01
15 3 9.73047686663445988e-01
16 3 9.64961806777660192e-01
17 3 9.56244020016611240e-01
18 3 9.46892369683237534e-01
19 3 9.36906088415360383e-01
20 3 9.26285631621534100e-01
21 3 9.15032705942612767e-01
22 3 9.03150292371840524e-01
23 3 8.90642663701470716e-01
24 3 8.77515396004521775e-01
25 3 8.63775373905935839e-01
26 3 8.49430789447625401e-01
27 3 8.34491134406123103e-01
28 3 8.18967185979086687e-01
29 3 8.02870985817031979e-01
30 3 7.86215812438498807e-01
31 3 7.69016147129546801e-01
32 3 7.51287633491072637e-01
33 3 7.33047030859025894e-01
34 3 7.14312161882188712e-01
35 3 6.95101854598907054e-01
36 3 6.75435879407081274e-01
37 3 6.55334881370084554e-01
38 3 6.34820308344294371e-01
39 3 6.13914335450991500e-01
40 3 5.92639786445960715e-01
41 3 5.71020052563826042e-01
42 3 5.49079009430678222e-01
43 3 5.26840932647799520e-01
44 3 5.04330412651204929e-01
45 3 4.81572269446483348e-01
46 3 4.58591467806245823e-01
47 3 4.35413033498758262e-01
48 3 4.12061971091531476e-01
49 3 3.88563183843321724e-01
50 3 3.64941396162789922e-01
51 3 3.41221079072704048e-01
52 3 3.17426379075753773e-01
53 3 2.93581050772573404e-01
54 3 2.69708393535183666e-01
55 3 2.45831192490546580e-01
56 3 2.21971664019998044e-01
57 3 1.98151405931698804e-01
58 3 1.74391352415546486e-01
59 3 1.50711733843847229e-01
60 3 1.27132041436938514e-01
61 3 1.03670996771371982e-01
62 3 8.03465260695602063e-02
63 3 5.71757391742831952e-02
64 3 3.41749130793547670e-02
65 3 1.13594798592285533e-02
66 3 6.26674729251184999e-17
1 4 1.03906250000000000e+00
2 4 1.03906249999999978e+00
3 4 1.03854823178058231e+00
4 4 1.03750615862171758e+00
5 4 1.03592319078881867e+00
6 4 1.03378674440723661e+00
7 4 1.03108480118615797e+00
8 4 1.02780596866500340e+00
9 4 1.02393954062826698e+00
10 4 1.01947555730941275e+00
11 4 1.01440486498141547e+00
12 4 1.00871917451132953e+00
13 4 1.00241111843944575e+00
14 4 9.95474306130557762e-01
15 4 9.87903376536170108e-01
16 4 9.79694048102510151e-01
17 4 9.70843165360376403e-01
18 4 9.61348741739469936e-01
19 4 9.51209998162159676e-01
20 4 9.40427396989801712e-01
21 4 9.29002670918835816e-01
22 4 9.16938846453853595e-01
23 4 9.04240261620577246e-01
24 4 8.90912577622911428e-01
25 4 8.76962784194575962e-01
26 4 8.62399198446825777e-01
27 4 8.47231457068811977e-01
28 4 8.31470501795561368e-01
29 4 8.15128558119581959e-01
30 4 7.98219107284887985e-01
31 4 7.80756851665875939e-01
32 4 7.62757673697043170e-01
33 4 7.44238588582064375e-01
34 4 7.25217691071229797e-01
35 4 7.05714096653852208e-01
36 4 6.85747877565968000e-01
37 4 6.65339994062757789e-01
38 4 6.44512221448787392e-01
39 4 6.23287073396808111e-01
40 4 6.01687722116891366e-01
41 4 5.79737915961747063e-01
42 4 5.57461895070841429e-01
43 4 5.34884305665323190e-01
44 4 5.12030113607711890e-01
45 4 4.88924517834979200e-01
46 4 4.65592864261302974e-01
47 4 4.42060560727746854e-01
48 4 4.18352993550944019e-01
49 4 3.94495446192074717e-01
50 4 3.70513020531687498e-01
51 4 3.46430561195951336e-01
52 4 3.22272583336452256e-01
53 4 2.98063204219482847e-01
54 4 2.73826078932667361e-01
55 4 2.49584340467501553e-01
56 4 2.25360544386715517e-01
57 4 2.01176618235999555e-01
58 4 1.77053815811203719e-01
59 4 1.53012676345280013e-01
60 4 1.29072988634449021e-01
61 4 1.05253760080858585e-01
62 4 8.15731905897061765e-02
63 4 5.80486512227455301e-02
64 4 3.46966674775128700e-02
65 4 1.15329070326518884e-02
66 4 6.36242282369523682e-17
1 5 1.05468750000000000e+00
2 5 1.05468749999999978e+00
3 5 1.05416549842389928e+00
4 5 1.05310775499196940e+00
5 5 1.05150098313150742e+00
6 5 1.04933240973666875e+00
7 5 1.04658983579046105e+00
8 5 1.04326169751710873e+00
9 5 1.03933712770538378e+00
10 5 1.03480601681782503e+00
11 5 1.02965907347737651e+00
12 5 1.02388788390247742e+00
13 5 1.01748496984455028e+00
14 5 1.01044384456861125e+00
15 5 1.00275906640889434e+00
16 5 9.94426289427360000e-01
17 5 9.85442310704141788e-01
18 5 9.75805113795702561e-01
19 5 9.65513907908958968e-01
20 5 9.54569162358069323e-01
21 5 9.42972635895058864e-01
22 5 9.30727400535866445e-01
23 5 9.17837859539683776e-01
24 5 9.04309759241300970e-01
25 5 8.90150194483216195e-01
26 5 8.75367607446026152e-01
27 5 8.59971779731500852e-01
28 5 8.43973817612036048e-01
29 5 8.27386130422131938e-01
30 5 8.10222402131277164e-01
31 5 7.92497556202204745e-01
32 5 7.74227713903013592e-01
33 5 7.55430146305102967e-01
34 5 7.36123220260270883e-01
35 5 7.16326338708797361e-01
36 5 6.96059875724854726e-01
37 5 6.75345106755430913e-01
38 5 6.54204134553280414e-01
39 5 6.32659811342624723e-01
40 5 6.10735657787822128e-01
41 5 5.88455779359667974e-01
42 5 5.65844780711004414e-01
43 5 5.42927678682846748e-01
44 5 5.19729814564218850e-01
45 5 4.96276766223475108e-01
46 5 4.72594260716360071e-01
47 5 4.48708087956735502e-01
48 5 4.24644016010356673e-01
49 5 4.00427708540827709e-01
50 5 3.76084644900585130e-01
51 5 3.51640043319198792e-01
52 5 3.27118787597150740e-01
53 5 3.02545357666392400e-01
54 5 2.77943764330151111e-01
55 5 2.53337488444456471e-01
56 5 2.28749424753433045e-01
57 5 2.04201830540300333e-01
58 5 1.79716279206860896e-01
59 5 1.55313618846712798e-01
60 5 1.31013935831959527e-01
61 5 1.06836523390345203e-01
62 5 8.27998551098521052e-02
63 5 5.89215632712078649e-02
64 5 3.52184218756709522e-02
65 5 1.17063342060752269e-02
66 5 6.45809835487862365e-17
1 6 1.07031250000000000e+00
2 6 1.07031250000000000e+00
3 6 1.06978276506721626e+00
4 6 1.06870935136222078e+00
5 6 1.06707877547419638e+00
6 6 1.06487807506610088e+00
7 6 1.06209487039476413e+00
8 6 1.05871742636921407e+00
9 6 1.05473471478250058e+00
10 6 1.05013647632623730e+00
11 6 1.04491328197333755e+00
12 6 1.03905659329362532e+00
13 6 1.03255882124965459e+00
14 6 1.02541338300666451e+00
15 6 1.01761475628161890e+00
16 6 1.00915853075220974e+00
17 6 1.00004145604790695e+00
18 6 9.90261485851935297e-01
19 6 9.79817817655758261e-01
20 6 9.68710927726337045e-01
21 6 9.56942600871281912e-01
22 6 9.44515954617879294e-01
23 6 9.31435457458790306e-01
24 6 9.17706940859690512e-01
25 6 9.03337604771856317e-01
26 6 8.88336016445226528e-01
27 6 8.72712102394189948e-01
28 6 8.56477133428510728e-01
29 6 8.39643702724682028e-01
30 6 8.22225696977666454e-01
31 6 8.04238260738533661e-01
32 6 7.85697754108984237e-01
33 6 7.66621704028141449e-01
34 6 7.47028749449311968e-01
35 6 7.26938580763742737e-01
36 6 7.06371873883741341e-01
37 6 6.85350219448104037e-01
38 6 6.63896047657773547e-01
39 6 6.42032549288441445e-01
40 6 6.19783593458752780e-01
41 6 5.97173642757588885e-01
42 6 5.74227666351167398e-01
43 6 5.50971051700370418e-01
44 6 5.27429515520725811e-01
45 6 5.03629014611971071e-01
46 6 4.79595657171417222e-01
47 6 4.55355615185724094e-01
48 6 4.30935038469769494e-01
49 6 4.06359970889580757e-01
50 6 3.81656269269482595e-01
51 6 3.56849525442446247e-01
52 6 3.31964991857849223e-01
53 6 3.07027511113301899e-01
54 6 2.82061449727634861e-01
55 6 2.57090636421411389e-01
56 6 2.32138305120150545e-01
57 6 2.07227042844601056e-01
58 6 1.82378742602518046e-01
59 6 1.57614561348145582e-01
60 6 1.32954883029470033e-01
61 6 1.08419286699831779e-01
62 6 8.40265196299980616e-02
63 6 5.97944753196701928e-02
64 6 3.57401762738290343e-02
65 6 1.18797613794985619e-02
66 6 6.55377388606201049e-17
1 7 1.08593750000000000e+00
2 7 1.08593750000000000e+00
3 7 1.08540003171053323e+00
4 7 1.08431094773247239e+00
5 7 1.08265656781688535e+00
6 7 1.08042374039553302e+00
7 7 1.07759990499906722e+00
8 7 1.07417315522131918e+00
9 7 1.07013230185961739e+00
10 7 1.06546693583464935e+00
11 7 1.06016749046929859e+00
12 7 1.05422530268477299e+00
13 7 1.04763267265475912e+00
14 7 1.04038292144471800e+00
15 7 1.03247044615434325e+00
16 7 1.02389077207705959e+00
17 7 1.01464060139167200e+00
18 7 1.00471785790816770e+00
19 7 9.94121727402557553e-01
20 7 9.82852693094604657e-01
21 7 9.70912565847504960e-01
22 7 9.58304508699892255e-01
23 7 9.45033055377896725e-01
24 7 9.31104122478080054e-01
25 7 9.16525015060496662e-01
26 7 9.01304425444426793e-01
27 7 8.85452425056878933e-01
28 7 8.68980449244985409e-01
29 7 8.51901275027232230e-01
30 7 8.34228991824055632e-01
31 7 8.15978965274862578e-01
32 7 7.97167794314954881e-01
33 7 7.77813261751180041e-01
34 7 7.57934278638353054e-01
35 7 7.37550822818687890e-01
36 7 7.16683872042628289e-01
37 7 6.95355332140777049e-01
38 7 6.73587960762266680e-01
39 7 6.51405287234257946e-01
40 7 6.28831529129683542e-01
41 7 6.05891506155509796e-01
42 7 5.82610551991330494e-01
43 7 5.59014424717893976e-01
44 7 5.35129216477232772e-01
45 7 5.10981263000466979e-01
46 7 4.86597053626474429e-01
47 7 4.62003142414712742e-01
48 7 4.37226060929182203e-01
49 7 4.12292233238333805e-01
50 7 3.87227893638380005e-01
51 7 3.62059007565693591e-01
52 7 3.36811196118547818e-01
53 7 3.11509664560211397e-01
54 7 2.86179135125118611e-01
55 7 2.60843784398366307e-01
56 7 2.35527185486868074e-01
57 7 2.10252255148901779e-01
58 7 1.85041205998175223e-01
59 7 1.59915503849578367e-01
60 7 1.34895830226980512e-01
61 7 1.10002050009318383e-01
62 7 8.52531841501440041e-02
63 7 6.06673873681325276e-02
64 7 3.62619306719871165e-02
65 7 1.20531885529218986e-02
66 7 6.64944941724539609e-17
1 8 1.10156250000000000e+00
2 8 1.10156249999999978e+00
3 8 1.10101729835385043e+00
4 8 1.09991254410272399e+00
5 8 1.09823436015957454e+00
6 8 1.09596940572496515e+00
7 8 1.09310493960337030e+00
8 8 1.08962888407342473e+00
9 8 1.08552988893673419e+00
10 8 1.08079739534306141e+00
11 8 1.07542169896525941e+00
12 8 1.06939401207592066e+00
13 8 1.06270652405986343e+00
14 8 1.05535245988277149e+00
15 8 1.04732613602706759e+00
16 8 1.03862301340190921e+00
17 8 1.02923974673543706e+00
18 8 1.01917422996440044e+00
19 8 1.00842563714935674e+00
20 8 9.96994458462872379e-01
21 8 9.84882530823728120e-01
22 8 9.72093062781905104e-01
23 8 9.58630653297003255e-01
24 8 9.44501304096469596e-01
25 8 9.29712425349136784e-01
26 8 9.14272834443627058e-01
27 8 8.98192747719567697e-01
28 8 8.81483765061459978e-01
29 8 8.64158847329782209e-01
30 8 8.46232286670444922e-01
31 8 8.27719669811191494e-01
32 8 8.08637834520925525e-01
33 8 7.89004819474218633e-01
34 8 7.68839807827394028e-01
35 8 7.48163064873633044e-01
36 8 7.26995870201515015e-01
37 8 7.05360444833450062e-01
38 8 6.83279873866759924e-01
39 8 6.60778025180074446e-01
40 8 6.37879464800614193e-01
41 8 6.14609369553430707e-01
42 8 5.90993437631493479e-01
43 8 5.67057797735417646e-01
44 8 5.42828917433739733e-01
45 8 5.18333511388962886e-01
46 8 4.93598450081531581e-01
47 8 4.68650669643701334e-01
48 8 4.43517083388594913e-01
49 8 4.18224495587086742e-01
50 8 3.92799518007277582e-01
51 8 3.67268489688940936e-01
52 8 3.41657400379246357e-01
53 8 3.15991818007120895e-01
54 8 2.90296820522602306e-01
55 8 2.64596932375321225e-01
56 8 2.38916065853585602e-01
57 8 2.13277467453202557e-01
58 8 1.87703669393832429e-01
59 8 1.62216446351011151e-01
60 8 1.36836777424490991e-01
61 8 1.11584813318804973e-01
62 8 8.64798486702899744e-02
63 8 6.15402994165948694e-02
64 8 3.67836850701452056e-02
65 8 1.22266157263452371e-02
66 8 6.74512494842878293e-17
1 9 1.11718750000000000e+00
2 9 1.11718749999999978e+00
3 9 1.11663456499716740e+00
4 9 1.11551414047297537e+00
5 9 1.11381215250226373e+00
6 9 1.11151507105439729e+00
7 9 1.10860997420767338e+00
8 9 1.10508461292552984e+00
9 9 1.10092747601385099e+00
10 9 1.09612785485147368e+00
11 9 1.09067590746122045e+00
12 9 1.08456272146706834e+00
13 9 1.07778037546496797e+00
14 9 1.07032199832082497e+00
15 9 1.06218182589979193e+00
16 9 1.05335525472675884e+00
17 9 1.04383889207920211e+00
18 9 1.03363060202063317e+00
19 9 1.02272954689615614e+00
20 9 1.01113622383113988e+00
21 9 9.98852495799951168e-01
22 9 9.85881616863917842e-01
23 9 9.72228251216109673e-01
24 9 9.57898485714859249e-01
25 9 9.42899835637776906e-01
26 9 9.27241243442827545e-01
27 9 9.10933070382256460e-01
28 9 8.93987080877934548e-01
29 9 8.76416419632332300e-01
30 9 8.58235581516834212e-01
31 9 8.39460374347520411e-01
32 9 8.20107874726896058e-01
33 9 8.00196377197257225e-01
34 9 7.79745337016435003e-01
35 9 7.58775306928578086e-01
36 9 7.37307868360401852e-01
37 9 7.15365557526123075e-01
38 9 6.92971786971253056e-01
39 9 6.70150763125891169e-01
40 9 6.46927400471544956e-01
41 9 6.23327232951351728e-01
42 9 5.99376323271656575e-01
43 9 5.75101170752941315e-01
44 9 5.50528618390246693e-01
45 9 5.25685759777458905e-01
46 9 5.00599846536588733e-01
47 9 4.75298196872689982e-01
48 9 4.49808105848007622e-01
49 9 4.24156757935839734e-01
50 9 3.98371142376175047e-01
51 9 3.72477971812188280e-01
52 9 3.46503604639944895e-01
53 9 3.20473971454030337e-01
54 9 2.94414505920086056e-01
55 9 2.68350080352276144e-01
56 9 2.42304946220303102e-01
57 9 2.16302679757503280e-01
58 9 1.90366132789489634e-01
59 9 1.64517388852443935e-01
60 9 1.38777724622001525e-01
61 9 1.13167576628291577e-01
62 9 8.77065131904359307e-02
63 9 6.24132114650572112e-02
64 9 3.73054394683032947e-02
65 9 1.24000428997685739e-02
66 9 6.84080047961216976e-17
1 10 1.13281250000000000e+00
2 10 1.13281249999999978e+00
3 10 1.13225183164048437e+00
4 10 1.13111573684322675e+00
5 10 1.12938994484495270e+00
6 10 1.12706073638382942e+00
7 10 1.12411500881197646e+00
8 10 1.12054034177763517e+00
9 10 1.11632506309096780e+00
10 10 1.11145831435988596e+00
11 10 1.10593011595718149e+00
12 10 1.09973143085821601e+00
13 10 1.09285422687007250e+00
14 10 1.08529153675887824e+00
15 10 1.07703751577251627e+00
16 10 1.06808749605160846e+00
17 10 1.05843803742296716e+00
18 10 1.04808697407686591e+00
19 10 1.03703345664295554e+00
20 10 1.02527798919940771e+00
21 10 1.01282246077617422e+00
22 10 9.99670170945930581e-01
23 10 9.85825849135216092e-01
24 10 9.71295667333248902e-01
25 10 9.56087245926417140e-01
26 10 9.40209652442027921e-01
27 10 9.23673393044945334e-01
28 10 9.06490396694409117e-01
29 10 8.88673991934882501e-01
30 10 8.70238876363223501e-01
31 10 8.51201078883849438e-01
32 10 8.31577914932866591e-01
33 10 8.11387934920295928e-01
34 10 7.90650866205476088e-01
35 10 7.69387548983523128e-01
36 10 7.47619866519288578e-01
37 10 7.25370670218795977e-01
38 10 7.02663700075746078e-01
39 10 6.79523501071707781e-01
40 10 6.55975336142475718e-01
41 10 6.32045096349272750e-01
42 10 6.07759208911819560e-01
43 10 5.83144543770464985e-01
44 10 5.58228319346753654e-01
45 10 5.33038008165954813e-01
46 10 5.07601242991645996e-01
47 10 4.81945724101678630e-01
48 10 4.56099128307420276e-01
49 10 4.30089020284592727e-01
50 10 4.03942766745072623e-01
51 10 3.77687453935435680e-01
52 10 3.51349808900643434e-01
53 10 3.24956124900939836e-01
54 10 2.98532191317569806e-01
55 10 2.72103228329231062e-01
56 10 2.45693826587020603e-01
57 10 2.19327892061804031e-01
58 10 1.93028596185146839e-01
59 10 1.66818331353876720e-01
60 10 1.40718671819512031e-01
61 10 1.14750339937778181e-01
62 10 8.89331777105818871e-02
63 10 6.32861235135195460e-02
64 10 3.78271938664613838e-02
65 10 1.25734700731919089e-02
66 10 6.93647601079555659e-17
1 11 1.14843750000000000e+00
2 11 1.14843749999999978e+00
3 11 1.14786909828380135e+00
4 11 1.14671733321347835e+00
5 11 1.14496773718764167e+00
6 11 1.14260640171326133e+00
7 11 1.13962004341627932e+00
8 11 1.13599607062974028e+00
9 11 1.13172265016808438e+00
10 11 1.12678877386829823e+00
11 11 1.12118432445314276e+00
12 11 1.11490014024936368e+00
13 11 1.10792807827517681e+00
14 11 1.10026107519693195e+00
15 11 1.09189320564524062e+00
16 11 1.08281973737645809e+00
17 11 1.07303718276673243e+00
18 11 1.06254334613309864e+00
19 11 1.05133736638975472e+00
20 11 1.03941975456767532e+00
21 11 1.02679242575239749e+00
22 11 1.01345872502794343e+00
23 11 9.99423447054322400e-01
24 11 9.84692848951638333e-01
25 11 9.69274656215057373e-01
26 11 9.53178061441228297e-01
27 11 9.36413715707634320e-01
28 11 9.18993712510883687e-01
29 11 9.00931564237432481e-01
30 11 8.82242171209612902e-01
31 11 8.62941783420178465e-01
32 11 8.43047955138837235e-01
33 11 8.22579492643334520e-01
34 11 8.01556395394517063e-01
35 11 7.79999791038468282e-01
36 11 7.57931864678175304e-01
37 11 7.35375782911468989e-01
38 11 7.12355613180239100e-01
39 11 6.88896239017524392e-01
40 11 6.65023271813406369e-01
41 11 6.40762959747193772e-01
42 11 6.16142094551982544e-01
43 11 5.91187916787988654e-01
44 11 5.65928020303260615e-01
45 11 5.40390256554450721e-01
46 11 5.14602639446703147e-01
47 11 4.88593251330667278e-01
48 11 4.62390150766832986e-01
49 11 4.36021282633345719e-01
50 11 4.09514391113970200e-01
51 11 3.82896936058683079e-01
52 11 3.56196013161341973e-01
53 11 3.29438278347849334e-01
54 11 3.02649876715053556e-01
55 11 2.75856376306185980e-01
56 11 2.49082706953738131e-01
57 11 2.22353104366104753e-01
58 11 1.95691059580804044e-01
59 11 1.69119273855309477e-01
60 11 1.42659619017022538e-01
61 11 1.16333103247264771e-01
62 11 9.01598422307278435e-02
63 11 6.41590355619818808e-02
64 11 3.83489482646194729e-02
65 11 1.27468972466152457e-02
66 11 7.03215154197894343e-17
1 12 1.16406250000000000e+00
2 12 1.16406250000000000e+00
3 12 1.16348636492711854e+00
4 12 1.16231892958372973e+00
5 12 1.16054552953033063e+00
6 12 1.15815206704269325e+00
7 12 1.15512507802058240e+00
8 12 1.15145179948184562e+00
9 12 1.14712023724520118e+00
10 12 1.14211923337671029e+00
11 12 1.13643853294910380e+00
12 12 1.13006884964051157e+00
13 12 1.12300192968028134e+00
14 12 1.11523061363498543e+00
15 12 1.10674889551796496e+00
16 12 1.09755197870130794e+00
17 12 1.08763632811049749e+00
18 12 1.07699971818933138e+00
19 12 1.06564127613655413e+00
20 12 1.05356151993594294e+00
21 12 1.04076239072862053e+00
22 12 1.02724727910995628e+00
23 12 1.01302104497342893e+00
24 12 9.98090030570027986e-01
25 12 9.82462066503697384e-01
26 12 9.66146470440428562e-01
27 12 9.49154038370323194e-01
28 12 9.31497028327358478e-01
29 12 9.13189136539982682e-01
30 12 8.94245466056002192e-01
31 12 8.74682487956507493e-01
32 12 8.54517995344807768e-01
33 12 8.33771050366373223e-01
34 12 8.12461924583558037e-01
35 12 7.90612033093413435e-01
36 12 7.68243862837062030e-01
37 12 7.45380895604142113e-01
38 12 7.22047526284732011e-01
39 12 6.98268976963341004e-01
40 12 6.74071207484337021e-01
41 12 6.49480823145114905e-01
42 12 6.24524980192145418e-01
43 12 5.99231289805512435e-01
44 12 5.73627721259767576e-01
45 12 5.47742504942946629e-01
46 12 5.21604035901760299e-01
47 12 4.95240778559655981e-01
48 12 4.68681173226245640e-01
49 12 4.41953544982098712e-01
50 12 4.15086015482867776e-01
51 12 3.88106418181930479e-01
52 12 3.61042217422040512e-01
53 12 3.33920431794758832e-01
54 12 3.06767562112537306e-01
55 12 2.79609524283140898e-01
56 12 2.52471587320455659e-01
57 12 2.25378316670405504e-01
58 12 1.98353522976461222e-01
59 12 1.71420216356742289e-01
60 12 1.44600566214533044e-01
61 12 1.17915866556751348e-01
62 12 9.13865067508737999e-02
63 12 6.50319476104442296e-02
64 12 3.88707026627775620e-02
65 12 1.29203244200385824e-02
66 12 7.12782707316233150e-17
1 13 1.17968750000000000e+00
2 13 1.17968750000000000e+00
3 13 1.17910363157043552e+00
4 13 1.17792052595398111e+00
5 13 1.17612332187301960e+00
6 13 1.17369773237212516e+00
7 13 1.17063011262488548e+00
8 13 1.16690752833395095e+00
9 13 1.16251782432231798e+00
10 13 1.15744969288512256e+00
11 13 1.15169274144506484e+00
12 13 1.14523755903165947e+00
13 13 1.13807578108538565e+00
14 13 1.13020015207303892e+00
15 13 1.12160458539068930e+00
16 13 1.11228422002615801e+00
17 13 1.10223547345426254e+00
18 13 1.09145609024556411e+00
19 13 1.07994518588335331e+00
20 13 1.06770328530421077e+00
21 13 1.05473235570484358e+00
22 13 1.04103583319196891e+00
23 13 1.02661864289253524e+00
24 13 1.01148721218841753e+00
25 13 9.95649476792337618e-01
26 13 9.79114879439628938e-01
27 13 9.61894361033012069e-01
28 13 9.44000344143833048e-01
29 13 9.25446708842532773e-01
30 13 9.06248760902391481e-01
31 13 8.86423192492836520e-01
32 13 8.65988035550778301e-01
33 13 8.44962608089411704e-01
34 13 8.23367453772599012e-01
35 13 8.01224275148358478e-01
36 13 7.78555860995948756e-01
37 13 7.55386008296815015e-01
38 13 7.31739439389225033e-01
39 13 7.07641714909157615e-01
40 13 6.83119143155267672e-01
41 13 6.58198686543035927e-01
42 13 6.32907865832308403e-01
43 13 6.07274662823036104e-01
44 13 5.81327422216274647e-01
45 13 5.55094753331442536e-01
46 13 5.28605432356817451e-01
47 13 5.01888305788644629e-01
48 13 4.74972195685658349e-01
49 13 4.47885807330851704e-01
50 13 4.20657639851765297e-01
51 13 3.93315900305177935e-01
52 13 3.65888421682739051e-01
53 13 3.38402585241668330e-01
54 13 3.10885247510021001e-01
55 13 2.83362672260095816e-01
56 13 2.55860467687173188e-01
57 13 2.28403528974706255e-01
58 13 2.01015986372118399e-01
59 13 1.73721158858175073e-01
60 13 1.46541513412043550e-01
61 13 1.19498629866237924e-01
62 13 9.26131712710197563e-02
63 13 6.59048596589065783e-02
64 13 3.93924570609356442e-02
65 13 1.30937515934619192e-02
66 13 7.22350260434571833e-17
1 14 1.19531250000000000e+00
2 14 1.19531250000000022e+00
3 14 1.19472089821375249e+00
4 14 1.19352212232423249e+00
5 14 1.19170111421570857e+00
6 14 1.18924339770155729e+00
7 14 1.18613514722918878e+00
8 14 1.18236325718605628e+00
9 14 1.17791541139943479e+00
10 14 1.17278015239353506e+00
11 14 1.16694694994102610e+00
12 14 1.16040626842280736e+00
13 14 1.15314963249048996e+00
14 14 1.14516969051109241e+00
15 14 1.13646027526341364e+00
16 14 1.12701646135100786e+00
17 14 1.11683461879802759e+00
18 14 1.10591246230179685e+00
19 14 1.09424909563015271e+00
20 14 1.08184505067247838e+00
21 14 1.06870232068106663e+00
22 14 1.05482438727398176e+00
23 14 1.04021624081164155e+00
24 14 1.02488439380680729e+00
25 14 1.00883688708097785e+00
26 14 9.92083288438829314e-01
27 14 9.74634683695701054e-01
28 14 9.56503659960307617e-01
29 14 9.37704281145082974e-01
30 14 9.18252055748780771e-01
31 14 8.98163897029165548e-01
32 14 8.77458075756748834e-01
33 14 8.56154165812450296e-01
34 14 8.34272982961640097e-01
35 14 8.11836517203303631e-01
36 14 7.88867859154835593e-01
37 14 7.65391120989488027e-01
38 14 7.41431352493718054e-01
39 14 7.17014452854974227e-01
40 14 6.92167078826198323e-01
41 14 6.66916549940956838e-01
42 14 6.41290751472471388e-01
43 14 6.15318035840559663e-01
44 14 5.89027123172781608e-01
45 14 5.62447001719938444e-01
46 14 5.35606828811874602e-01
47 14 5.08535833017633276e-01
48 14 4.81263218145071003e-01
49 14 4.53818069679604696e-01
50 14 4.26229264220662873e-01
51 14 3.98525382428425279e-01
52 14 3.70734625943437590e-01
53 14 3.42884738688577773e-01
54 14 3.15002932907504696e-01
55 14 2.87115820237050734e-01
56 14 2.59249348053890716e-01
57 14 2.31428741279006978e-01
58 14 2.03678449767775605e-01
59 14 1.76022101359607858e-01
60 14 1.48482460609554057e-01
61 14 1.21081393175724514e-01
62 14 9.38398357911657127e-02
63 14 6.67777717073689131e-02
64 14 3.99142114590937402e-02
65 14 1.32671787668852542e-02
66 14 7.31917813552910516e-17
1 15 1.21093750000000000e+00
2 15 1.21093750000000000e+00
3 15 1.21033816485706947e+00
4 15 1.20912371869448387e+00
5 15 1.20727890655839754e+00
6 15 1.20478906303098943e+00
7 15 1.20164018183349186e+00
8 15 1.19781898603816139e+00
9 15 1.19331299847655159e+00
10 15 1.18811061190194711e+00
11 15 1.18220115843698736e+00
12 15 1.17557497781395526e+00
13 15 1.16822348389559449e+00
14 15 1.16013922894914590e+00
15 15 1.15131596513613821e+00
16 15 1.14174870267585771e+00
17 15 1.13143376414179264e+00
18 15 1.12036883435802936e+00
19 15 1.10855300537695212e+00
20 15 1.09598681604074599e+00
21 15 1.08267228565728946e+00
22 15 1.06861294135599461e+00
23 15 1.05381383873074785e+00
24 15 1.03828157542519706e+00
25 15 1.02202429736961808e+00
26 15 1.00505169743802969e+00
27 15 9.87375006358389928e-01
28 15 9.69006975776782076e-01
29 15 9.49961853447633064e-01
30 15 9.30255350595170061e-01
31 15 9.09904601565494464e-01
32 15 8.88928115962719256e-01
33 15 8.67345723535488777e-01
34 15 8.45178512150681183e-01
35 15 8.22448759258248563e-01
36 15 7.99179857313722208e-01
37 15 7.75396233682161040e-01
38 15 7.51123265598210965e-01
39 15 7.26387190800790949e-01
40 15 7.01215014497128863e-01
41 15 6.75634413338877748e-01
42 15 6.49673637112634483e-01
43 15 6.23361408858083332e-01
44 15 5.96726824129288458e-01
45 15 5.69799250108434352e-01
46 15 5.42608225266931754e-01
47 15 5.15183360246621924e-01
48 15 4.87554240604483713e-01
49 15 4.59750332028357689e-01
50 15 4.31800888589560450e-01
51 15 4.03734864551672734e-01
52 15 3.75580830204136129e-01
53 15 3.47366892135487271e-01
54 15 3.19120618304988446e-01
55 15 2.90868968214005597e-01
56 15 2.62638228420608244e-01
57 15 2.34453953583307700e-01
58 15 2.06340913163432810e-01
59 15 1.78323043861040642e-01
60 15 1.50423407807064563e-01
61 15 1.22664156485211132e-01
62 15 9.50665003113116830e-02
63 15 6.76506837558312618e-02
64 15 4.04359658572518363e-02
65 15 1.34406059403085892e-02
66 15 7.41485366671249200e-17
1 16 1.22656250000000000e+00
2 16 1.22656250000000000e+00
3 16 1.22595543150038644e+00
4 16 1.22472531506473525e+00
5 16 1.22285669890108628e+00
6 16 1.22033472836042156e+00
7 16 1.21714521643779516e+00
8 16 1.21327471489026673e+00
9 16 1.20871058555366839e+00
10 16 1.20344107141035939e+00
11 16 1.19745536693294841e+00
12 16 1.19074368720510315e+00
13 16 1.18329733530069903e+00
14 16 1.17510876738719960e+00
15 16 1.16617165500886255e+00
16 16 1.15648094400070756e+00
17 16 1.14603290948555769e+00
18 16 1.13482520641426210e+00
19 16 1.12285691512375152e+00
20 16 1.11012858140901383e+00
21 16 1.09664225063351251e+00
22 16 1.08240149543800745e+00
23 16 1.06741143664985416e+00
24 16 1.05167875704358660e+00
25 16 1.03521170765825832e+00
26 16 1.01802010643723029e+00
27 16 1.00011532902107891e+00
28 16 9.81510291593256645e-01
29 16 9.62219425750183155e-01
30 16 9.42258645441559350e-01
31 16 9.21645306101823492e-01
32 16 9.00398156168689900e-01
33 16 8.78537281258527258e-01
34 16 8.56084041339722268e-01
35 16 8.33061001313193716e-01
36 16 8.09491855472609045e-01
37 16 7.85401346374834053e-01
38 16 7.60815178702703987e-01
39 16 7.35759928746607561e-01
40 16 7.10262950168059737e-01
41 16 6.84352276736798770e-01
42 16 6.58056522752797579e-01
43 16 6.31404781875606891e-01
44 16 6.04426525085795419e-01
45 16 5.77151498496930260e-01
46 16 5.49609621721988906e-01
47 16 5.21830887475610572e-01
48 16 4.93845263063896422e-01
49 16 4.65682594377110681e-01
50 16 4.37372512958457971e-01
51 16 4.08944346674920134e-01
52 16 3.80427034464834612e-01
53 16 3.51849045582396824e-01
54 16 3.23238303702472141e-01
55 16 2.94622116190960515e-01
56 16 2.66027108787325772e-01
57 16 2.37479165887608451e-01
58 16 2.09003376559090043e-01
59 16 1.80623986362473427e-01
60 16 1.52364355004575069e-01
61 16 1.24246919794697736e-01
62 16 9.62931648314576394e-02
63 16 6.85235958042935966e-02
64 16 4.09577202554099254e-02
65 16 1.36140331137319243e-02
66 16 7.51052919789587883e-17
1 17 1.24218750000000000e+00
2 17 1.24218750000000022e+00
3 17 1.24157269814370341e+00
4 17 1.24032691143498641e+00
5 17 1.23843449124377503e+00
6 17 1.23588039368985370e+00
7 17 1.23265025104209824e+00
8 17 1.22873044374237206e+00
9 17 1.22410817263078520e+00
10 17 1.21877153091877166e+00
11 17 1.21270957542890945e+00
12 17 1.20591239659625105e+00
13 17 1.19837118670580334e+00
14 17 1.19007830582525309e+00
15 17 1.18102734488158689e+00
16 17 1.17121318532555740e+00
17 17 1.16063205482932275e+00
18 17 1.14928157847049461e+00
19 17 1.13716082487055070e+00
20 17 1.12427034677728166e+00
21 17 1.11061221560973555e+00
22 17 1.09619004952002030e+00
23 17 1.08100903456896069e+00
24 17 1.06507593866197614e+00
25 17 1.04839911794689855e+00
26 17 1.03098851543643066e+00
27 17 1.01285565168376768e+00
28 17 9.94013607409731326e-01
29 17 9.74476998052733356e-01
30 17 9.54261940287948862e-01
31 17 9.33386010638152519e-01
32 17 9.11868196374660434e-01
33 17 8.89728838981565739e-01
34 17 8.66989570528763243e-01
35 17 8.43673243368138870e-01
36 17 8.19803853631495771e-01
37 17 7.95406459067507066e-01
38 17 7.70507091807197009e-01
39 17 7.45132666692424173e-01
40 17 7.19310885838990388e-01
41 17 6.93070140134719792e-01
42 17 6.66439408392960675e-01
43 17 6.39448154893130671e-01
44 17 6.12126226042302379e-01
45 17 5.84503746885426168e-01
46 17 5.56611018177046168e-01
47 17 5.28478414704599220e-01
48 17 5.00136285523309132e-01
49 17 4.71614856725863674e-01
50 17 4.42944137327355547e-01
51 17 4.14153828798167589e-01
52 17 3.85273238725533151e-01
53 17 3.56331199029306323e-01
54 17 3.27355989099955835e-01
55 17 2.98375264167915377e-01
56 17 2.69415989154043301e-01
57 17 2.40504378191909202e-01
58 17 2.11665839954747248e-01
59 17 1.82924928863906183e-01
60 17 1.54305302202085576e-01
61 17 1.25829683104184326e-01
62 17 9.75198293516035958e-02
63 17 6.93965078527559315e-02
64 17 4.14794746535680145e-02
65 17 1.37874602871552593e-02
66 17 7.60620472907926567e-17
1 18 1.25781250000000000e+00
2 18 1.25781250000000022e+00
3 18 1.25718996478702039e+00
4 18 1.25592850780523779e+00
5 18 1.25401228358646399e+00
6 18 1.25142605901928583e+00
7 18 1.24815528564640110e+00
8 18 1.24418617259447739e+00
9 18 1.23950575970790200e+00
10 18 1.23410199042718416e+00
11 18 1.22796378392487071e+00
12 18 1.22108110598739894e+00
13 18 1.21344503811090765e+00
14 18 1.20504784426330636e+00
15 18 1.19588303475431101e+00
16 18 1.18594542665040725e+00
17 18 1.17523120017308780e+00
18 18 1.16373795052672735e+00
19 18 1.15146473461735011e+00
20 18 1.13841211214554949e+00
21 18 1.12458218058595860e+00
22 18 1.10997860360203315e+00
23 18 1.09460663248806722e+00
24 18 1.07847312028036568e+00
25 18 1.06158652823553878e+00
26 18 1.04395692443563104e+00
27 18 1.02559597434645666e+00
28 18 1.00651692322620612e+00
29 18 9.86734570355283447e-01
30 18 9.66265235134338152e-01
31 18 9.45126715174481435e-01
32 18 9.23338236580631078e-01
33 18 9.00920396704604332e-01
34 18 8.77895099717804328e-01
35 18 8.54285485423084023e-01
36 18 8.30115851790382497e-01
37 18 8.05411571760180189e-01
38 18 7.80199004911690031e-01
39 18 7.54505404638240895e-01
40 18 7.28358821509921039e-01
41 18 7.01788003532640814e-01
42 18 6.74822294033123771e-01
43 18 6.47491527910654341e-01
44 18 6.19825926998809340e-01
45 18 5.91855995273922186e-01
46 18 5.63612414632103320e-01
47 18 5.35125941933587757e-01
48 18 5.06427307982721842e-01
49 18 4.77547119074616666e-01
50 18 4.48515761696253124e-01
51 18 4.19363310921415045e-01
52 18 3.90119442986231635e-01
53 18 3.60813352476215821e-01
54 18 3.31473674497439585e-01
55 18 3.02128412144870295e-01
56 18 2.72804869520760884e-01
57 18 2.43529590496209897e-01
58 18 2.14328303350404425e-01
59 18 1.85225871365338995e-01
60 18 1.56246249399596110e-01
61 18 1.27412446413670916e-01
62 18 9.87464938717495522e-02
63 18 7.02694199012182663e-02
64 18 4.20012290517261036e-02
65 18 1.39608874605785960e-02
66 18 7.70188026026265250e-17
1 19 1.27343750000000000e+00
2 19 1.27343750000000000e+00
3 19 1.27280723143033736e+00
4 19 1.27153010417548917e+00
5 19 1.26959007592915318e+00
6 19 1.26697172434871796e+00
7 19 1.26366032025070396e+00
8 19 1.25964190144658295e+00
9 19 1.25490334678501880e+00
10 19 1.24943244993559666e+00
11 19 1.24321799242083175e+00
12 19 1.23624981537854661e+00
13 19 1.22851888951601218e+00
14 19 1.22001738270136006e+00
15 19 1.21073872462703536e+00
16 19 1.20067766797525710e+00
17 19 1.18983034551685285e+00
18 19 1.17819432258296009e+00
19 19 1.16576864436414929e+00
20 19 1.15255387751381710e+00
21 19 1.13855214556218187e+00
22 19 1.12376715768404600e+00
23 19 1.10820423040717375e+00
24 19 1.09187030189875522e+00
25 19 1.07477393852417902e+00
26 19 1.05692533343483142e+00
27 19 1.03833629700914565e+00
28 19 1.01902023904268058e+00
29 19 9.98992142657833648e-01
30 19 9.78268529980727553e-01
31 19 9.56867419710810241e-01
32 19 9.34808276786601611e-01
33 19 9.12111954427642924e-01
34 19 8.88800628906845414e-01
35 19 8.64897727478029066e-01
36 19 8.40427849949269334e-01
37 19 8.15416684452853313e-01
38 19 7.89890918016183052e-01
39 19 7.63878142584057507e-01
40 19 7.37406757180851802e-01
41 19 7.10505866930561725e-01
42 19 6.83205179673286755e-01
43 19 6.55534900928178121e-01
44 19 6.27525627955316301e-01
45 19 5.99208243662418094e-01
46 19 5.70613811087160472e-01
47 19 5.41773469162576515e-01
48 19 5.12718330442134551e-01
49 19 4.83479381423369658e-01
50 19 4.54087386065150755e-01
51 19 4.24572793044662444e-01
52 19 3.94965647246930118e-01
53 19 3.65295505923125319e-01
54 19 3.35591359894923280e-01
55 19 3.05881560121825158e-01
56 19 2.76193749887478412e-01
57 19 2.46554802800510647e-01
58 19 2.16990766746061631e-01
59 19 1.87526813866771808e-01
60 19 1.58187196597106616e-01
61 19 1.28995209723157506e-01
62 19 9.99731583918954947e-02
63 19 7.11423319496806150e-02
64 19 4.25229834498841858e-02
65 19 1.41343146340019345e-02
66 19 7.79755579144603934e-17
1 20 1.28906250000000000e+00
2 20 1.28906250000000000e+00
3 20 1.28842449807365456e+00
4 20 1.28713170054574055e+00
5 20 1.28516786827184237e+00
6 20 1.28251738967815010e+00
7 20 1.27916535485500726e+00
8 20 1.27509763029868828e+00
9 20 1.27030093386213583e+00
10 20 1.26476290944400893e+00
11 20 1.25847220091679302e+00
12 20 1.25141852476969451e+00
13 20 1.24359274092111649e+00
14 20 1.23498692113941355e+00
15 20 1.22559441449975970e+00
16 20 1.21540990930010673e+00
17 20 1.20442949086061790e+00
18 20 1.19265069463919260e+00
19 20 1.18007255411094869e+00
20 20 1.16669564288208472e+00
21 20 1.15252211053840492e+00
22 20 1.13755571176605885e+00
23 20 1.12180182832628006e+00
24 20 1.10526748351714477e+00
25 20 1.08796134881281925e+00
26 20 1.06989374243403179e+00
27 20 1.05107661967183441e+00
28 20 1.03152355485915526e+00
29 20 1.01124971496038385e+00
30 20 9.90271824827116842e-01
31 20 9.68608124247139157e-01
32 20 9.46278316992572144e-01
33 20 9.23303512150681516e-01
34 20 8.99706158095886499e-01
35 20 8.75509969532974108e-01
36 20 8.50739848108156060e-01
37 20 8.25421797145526548e-01
38 20 7.99582831120676185e-01
39 20 7.73250880529874118e-01
40 20 7.46454692851782564e-01
41 20 7.19223730328482747e-01
42 20 6.91588065313449740e-01
43 20 6.63578273945701902e-01
44 20 6.35225328911823262e-01
45 20 6.06560492050914113e-01
46 20 5.77615207542217624e-01
47 20 5.48420996391565163e-01
48 20 5.19009352901547261e-01
49 20 4.89411643772122706e-01
50 20 4.59659010434048332e-01
51 20 4.29782275167909789e-01
52 20 3.99811851507628657e-01
53 20 3.69777659370034872e-01
54 20 3.39709045292406975e-01
55 20 3.09634708098780131e-01
56 20 2.79582630254195941e-01
57 20 2.49580015104811398e-01
58 20 2.19653230141718836e-01
59 20 1.89827756368204564e-01
60 20 1.60128143794617123e-01
61 20 1.30577973032644096e-01
62 20 1.01199822912041451e-01
63 20 7.20152439981429499e-02
64 20 4.30447378480422679e-02
65 20 1.43077418074252730e-02
66 20 7.89323132262942617e-17
1 21 1.30468750000000000e+00
2 21 1.30468750000000000e+00
3 21 1.30404176471697153e+00
4 21 1.30273329691599193e+00
5 21 1.30074566061453134e+00
6 21 1.29806305500758246e+00
7 21 1.29467038945931057e+00
8 21 1.29055335915079361e+00
9 21 1.28569852093925241e+00
10 21 1.28009336895242121e+00
11 21 1.27372640941275428e+00
12 21 1.26658723416084218e+00
13 21 1.25866659232622080e+00
14 21 1.24995645957746704e+00
15 21 1.24045010437248404e+00
16 21 1.23014215062495635e+00
17 21 1.21902863620438295e+00
18 21 1.20710706669542556e+00
19 21 1.19437646385774809e+00
20 21 1.18083740825035255e+00
21 21 1.16649207551462819e+00
22 21 1.15134426584807170e+00
23 21 1.13539942624538659e+00
24 21 1.11866466513553453e+00
25 21 1.10114875910145948e+00
26 21 1.08286215143323239e+00
27 21 1.06381694233452340e+00
28 21 1.04402687067562994e+00
29 21 1.02350728726293405e+00
30 21 1.00227511967350602e+00
31 21 9.80348828783468185e-01
32 21 9.57748357198542677e-01
33 21 9.34495069873719997e-01
34 21 9.10611687284927473e-01
35 21 8.86122211587919151e-01
36 21 8.61051846267042786e-01
37 21 8.35426909838199561e-01
38 21 8.09274744225169318e-01
39 21 7.82623618475690841e-01
40 21 7.55502628522713326e-01
41 21 7.27941593726403657e-01
42 21 6.99970950953612725e-01
43 21 6.71621646963225571e-01
44 21 6.42925029868330222e-01
45 21 6.13912740439410021e-01
46 21 5.84616603997274886e-01
47 21 5.55068523620553811e-01
48 21 5.25300375360959970e-01
49 21 4.95343906120875699e-01
50 21 4.65230634802945853e-01
51 21 4.34991757291157188e-01
52 21 4.04658055768327196e-01
53 21 3.74259812816944371e-01
54 21 3.43826730689890725e-01
55 21 3.13387856075734994e-01
56 21 2.82971510620913524e-01
57 21 2.52605227409112176e-01
58 21 2.22315693537376013e-01
59 21 1.92128698869637349e-01
60 21 1.62069090992127657e-01
61 21 1.32160736342130714e-01
62 21 1.02426487432187380e-01
63 21 7.28881560466052847e-02
64 21 4.35664922462003501e-02
65 21 1.44811689808486081e-02
66 21 7.98890685381281424e-17
1 22 1.32031250000000000e+00
2 22 1.32031250000000000e+00
3 22 1.31965903136028873e+00
4 22 1.31833489328624331e+00
5 22 1.31632345295722053e+00
6 22 1.31360872033701459e+00
7 22 1.31017542406361365e+00
8 22 1.30600908800289894e+00
9 22 1.30109610801636943e+00
10 22 1.29542382846083348e+00
11 22 1.28898061790871532e+00
12 22 1.28175594355199007e+00
13 22 1.27374044373132533e+00
14 22 1.26492599801552075e+00
15 22 1.25530579424520861e+00
16 22 1.24487439194980620e+00
17 22 1.23362778154814801e+00
18 22 1.22156343875165829e+00
19 22 1.20868037360454750e+00
20 22 1.19497917361862016e+00
21 22 1.18046204049085124e+00
22 22 1.16513281993008455e+00
23 22 1.14899702416449312e+00
24 22 1.13206184675392407e+00
25 22 1.11433616939009972e+00
26 22 1.09583056043243277e+00
27 22 1.07655726499721216e+00
28 22 1.05653018649210440e+00
29 22 1.03576485956548425e+00
30 22 1.01427841451989509e+00
31 22 9.92089533319797101e-01
32 22 9.69218397404513210e-01
33 22 9.45686627596758478e-01
34 22 9.21517216473968448e-01
35 22 8.96734453642864304e-01
36 22 8.71363844425929623e-01
37 22 8.45432022530872573e-01
38 22 8.18966657329662451e-01
39 22 7.91996356421507564e-01
40 22 7.64550564193643978e-01
41 22 7.36659457124324679e-01
42 22 7.08353836593775821e-01
43 22 6.79665019980749352e-01
44 22 6.50624730824837294e-01
45 22 6.21264988827905928e-01
46 22 5.91618000452332038e-01
47 22 5.61716050849542459e-01
48 22 5.31591397820372680e-01
49 22 5.01276168469628747e-01
50 22 4.70802259171843485e-01
51 22 4.40201239414404533e-01
52 22 4.09504260029025735e-01
53 22 3.78741966263853869e-01
54 22 3.47944416087374475e-01
55 22 3.17141004052689857e-01
56 22 2.86360390987631053e-01
57 22 2.55630439713412927e-01
58 22 2.24978156933033191e-01
59 22 1.94429641371070105e-01
60 22 1.64010038189638191e-01
61 22 1.33743499651617331e-01
62 22 1.03653151952333322e-01
63 22 7.37610680950676334e-02
64 22 4.40882466443584323e-02
65 22 1.46545961542719448e-02
66 22 8.08458238499620231e-17
1 23 1.33593750000000000e+00
2 23 1.33593750000000000e+00
3 23 1.33527629800360570e+00
4 23 1.33393648965649447e+00
5 23 1.33190124529990972e+00
6 23 1.32915438566644672e+00
7 23 1.32568045866791673e+00
8 23 1.32146481685500405e+00
9 23 1.31649369509348646e+00
10 23 1.31075428796924576e+00
11 23 1.30423482640467636e+00
12 23 1.29692465294313797e+00
13 23 1.28881429513642987e+00
14 23 1.27989553645357423e+00
15 23 1.27016148411793317e+00
16 23 1.25960663327465605e+00
17 23 1.24822692689191306e+00
18 23 1.23601981080789081e+00
19 23 1.22298428335134690e+00
20 23 1.20912093898688777e+00
21 23 1.19443200546707451e+00
22 23 1.17892137401209740e+00
23 23 1.16259462208359965e+00
24 23 1.14545902837231384e+00
25 23 1.12752357967873995e+00
26 23 1.10879896943163314e+00
27 23 1.08929758765990115e+00
28 23 1.06903350230857908e+00
29 23 1.04802243186803423e+00
30 23 1.02628170936628438e+00
31 23 1.00383023785612613e+00
32 23 9.80688437610483854e-01
33 23 9.56878185319796959e-01
34 23 9.32422745663009422e-01
35 23 9.07346695697809458e-01
36 23 8.81675842584816349e-01
37 23 8.55437135223545697e-01
38 23 8.28658570434155473e-01
39 23 8.01369094367324286e-01
40 23 7.73598499864574629e-01
41 23 7.45377320522245812e-01
42 23 7.16736722233939028e-01
43 23 6.87708392998272910e-01
44 23 6.58324431781344144e-01
45 23 6.28617237216401836e-01
46 23 5.98619396907389301e-01
47 23 5.68363578078531106e-01
48 23 5.37882420279785389e-01
49 23 5.07208430818381739e-01
50 23 4.76373883540741061e-01
51 23 4.45410721537651877e-01
52 23 4.14350464289724274e-01
53 23 3.83224119710763422e-01
54 23 3.52062101484858170e-01
55 23 3.20894152029644719e-01
56 23 2.89749271354348581e-01
57 23 2.58655652017713678e-01
58 23 2.27640620328690368e-01
59 23 1.96730583872502890e-01
60 23 1.65950985387148697e-01
61 23 1.35326262961103921e-01
62 23 1.04879816472479293e-01
63 23 7.46339801435299682e-02
64 23 4.46100010425165144e-02
65 23 1.48280233276952816e-02
66 23 8.18025791617958914e-17
1 24 1.35156250000000000e+00
2 24 1.35156250000000022e+00
3 24 1.35089356464692267e+00
4 24 1.34953808602674585e+00
5 24 1.34747903764259869e+00
6 24 1.34470005099587864e+00
7 24 1.34118549327222003e+00
8 24 1.33692054570710939e+00
9 24 1.33189128217060326e+00
10 24 1.32608474747765803e+00
11 24 1.31948903490063763e+00
12 24 1.31209336233428586e+00
13 24 1.30388814654153440e+00
14 24 1.29486507489162794e+00
15 24 1.28501717399065751e+00
16 24 1.27433887459950612e+00
17 24 1.26282607223567811e+00
18 24 1.25047618286412354e+00
19 24 1.23728819309814631e+00
20 24 1.22326270435515561e+00
21 24 1.20840197044329756e+00
22 24 1.19270992809411003e+00
23 24 1.17619222000270618e+00
24 24 1.15885620999070360e+00
25 24 1.14071098996738018e+00
26 24 1.12176737843083352e+00
27 24 1.10203791032259013e+00
28 24 1.08153681812505376e+00
29 24 1.06028000417058421e+00
30 24 1.03828500421267367e+00
31 24 1.01557094239245504e+00
32 24 9.92158477816454498e-01
33 24 9.68069743042835551e-01
34 24 9.43328274852050508e-01
35 24 9.17958937752754500e-01
36 24 8.91987840743703186e-01
37 24 8.65442247916218710e-01
38 24 8.38350483538648494e-01
39 24 8.10741832313140787e-01
40 24 7.82646435535505391e-01
41 24 7.54095183920166834e-01
42 24 7.25119607874102123e-01
43 24 6.95751766015796580e-01
44 24 6.66024132737851216e-01
45 24 6.35969485604897855e-01
46 24 6.05620793362446452e-01
47 24 5.75011105307519865e-01
48 24 5.44173442739198099e-01
49 24 5.13140693167134732e-01
50 24 4.81945507909638637e-01
51 24 4.50620203660899277e-01
52 24 4.19196668550422757e-01
53 24 3.87706273157672976e-01
54 24 3.56179786882341920e-01
55 24 3.24647300006599582e-01
56 24 2.93138151721066109e-01
57 24 2.61680864322014428e-01
58 24 2.30303083724347574e-01
59 24 1.99031526373935702e-01
60 24 1.67891932584659231e-01
61 24 1.36909026270590511e-01
62 24 1.06106480992625263e-01
63 24 7.55068921919923169e-02
64 24 4.51317554406746035e-02
65 24 1.50014505011186183e-02
66 24 8.27593344736297597e-17
1 25 1.36718750000000000e+00
2 25 1.36718750000000044e+00
3 25 1.36651083129023965e+00
4 25 1.36513968239699701e+00
5 25 1.36305682998528788e+00
6 25 1.36024571632531077e+00
7 25 1.35669052787652311e+00
8 25 1.35237627455921494e+00
9 25 1.34728886924772007e+00
10 25 1.34141520698607009e+00
11 25 1.33474324339659889e+00
12 25 1.32726207172543353e+00
13 25 1.31896199794663893e+00
14 25 1.30983461332968121e+00
15 25 1.29987286386338186e+00
16 25 1.28907111592435575e+00
17 25 1.27742521757944294e+00
18 25 1.26493255492035606e+00
19 25 1.25159210284494571e+00
20 25 1.23740446972342344e+00
21 25 1.22237193541952083e+00
22 25 1.20649848217612288e+00
23 25 1.18978981792181249e+00
24 25 1.17225339160909336e+00
25 25 1.15389840025602042e+00
26 25 1.13473578743003389e+00
27 25 1.11477823298527912e+00
28 25 1.09404013394152821e+00
29 25 1.07253757647313419e+00
30 25 1.05028829905906296e+00
31 25 1.02731164692878396e+00
32 25 1.00362851802242514e+00
33 25 9.79261300765874254e-01
34 25 9.54233804041091593e-01
35 25 9.28571179807699654e-01
36 25 9.02299838902589801e-01
37 25 8.75447360608891723e-01
38 25 8.48042396643141627e-01
39 25 8.20114570258957398e-01
40 25 7.91694371206436043e-01
41 25 7.62813047318087856e-01
42 25 7.33502493514265108e-01
43 25 7.03795139033320249e-01
44 25 6.73723833694358065e-01
45 25 6.43321733993393763e-01
46 25 6.12622189817503715e-01
47 25 5.81658632536508624e-01
48 25 5.50464465198610808e-01
49 25 5.19072955515887724e-01
50 25 4.87517132278536158e-01
51 25 4.55829685784146676e-01
52 25 4.24042872811121296e-01
53 25 3.92188426604582530e-01
54 25 3.60297472279825615e-01
55 25 3.28400447983554444e-01
56 25 2.96527032087783637e-01
57 25 2.64706076626315179e-01
58 25 2.32965547120004751e-01
59 25 2.01332468875368487e-01
60 25 1.69832879782169738e-01
61 25 1.38491789580077129e-01
62 25 1.07333145512771219e-01
63 25 7.63798042404546518e-02
64 25 4.56535098388326857e-02
65 25 1.51748776745419534e-02
66 25 8.37160897854636281e-17
1 26 1.38281250000000000e+00
2 26 1.38281250000000044e+00
3 26 1.38212809793355684e+00
4 26 1.38074127876724839e+00
5 26 1.37863462232797707e+00
6 26 1.37579138165474313e+00
7 26 1.37219556248082619e+00
8 26 1.36783200341132005e+00
9 26 1.36268645632483665e+00
10 26 1.35674566649448214e+00
11 26 1.34999745189256015e+00
12 26 1.34243078111658143e+00
13 26 1.33403584935174346e+00
14 26 1.32480415176773492e+00
15 26 1.31472855373610620e+00
16 26 1.30380335724920537e+00
17 26 1.29202436292320799e+00
18 26 1.27938892697658879e+00
19 26 1.26589601259174489e+00
20 26 1.25154623509169105e+00
21 26 1.23634190039574388e+00
22 26 1.22028703625813573e+00
23 26 1.20338741584091879e+00
24 26 1.18565057322748291e+00
25 26 1.16708581054466065e+00
26 26 1.14770419642923427e+00
27 26 1.12751855564796788e+00
28 26 1.10654344975800289e+00
29 26 1.08479514877568439e+00
30 26 1.06229159390545225e+00
31 26 1.03905235146511288e+00
32 26 1.01509855822839556e+00
33 26 9.90452858488912957e-01
34 26 9.65139333230132679e-01
35 26 9.39183421862644696e-01
36 26 9.12611837061476416e-01
37 26 8.85452473301564735e-01
38 26 8.57734309747634538e-01
39 26 8.29487308204774010e-01
40 26 8.00742306877366805e-01
41 26 7.71530910716008878e-01
42 26 7.41885379154428093e-01
43 26 7.11838512050843919e-01
44 26 6.81423534650865026e-01
45 26 6.50673982381889671e-01
46 26 6.19623586272560978e-01
47 26 5.88306159765497272e-01
48 26 5.56755487658023518e-01
49 26 5.25005217864640716e-01
50 26 4.93088756647433679e-01
51 26 4.61039167907394132e-01
52 26 4.28889077071819835e-01
53 26 3.96670580051492083e-01
54 26 3.64415157677309309e-01
55 26 3.32153595960509362e-01
56 26 2.99915912454501166e-01
57 26 2.67731288930615874e-01
58 26 2.35628010515661984e-01
59 26 2.03633411376801271e-01
60 26 1.71773826979680272e-01
61 26 1.40074552889563719e-01
62 26 1.08559810032917176e-01
63 26 7.72527162889170005e-02
64 26 4.61752642369907748e-02
65 26 1.53483048479652884e-02
66 26 8.46728450972974841e-17
1 27 1.39843749999999978e+00
2 27 1.39843750000000067e+00
3 27 1.39774536457687382e+00
4 27 1.39634287513749977e+00
5 27 1.39421241467066603e+00
6 27 1.39133704698417504e+00
7 27 1.38770059708512949e+00
8 27 1.38328773226342516e+00
9 27 1.37808404340195345e+00
10 27 1.37207612600289441e+00
11 27 1.36525166038852119e+00
12 27 1.35759949050772910e+00
13 27 1.34910970075684777e+00
14 27 1.33977369020578840e+00
15 27 1.32958424360883076e+00
16 27 1.31853559857405522e+00
17 27 1.30662350826697304e+00
18 27 1.29384529903282131e+00
19 27 1.28019992233854452e+00
20 27 1.26568800045995888e+00
21 27 1.25031186537196692e+00
22 27 1.23407559034014858e+00
23 27 1.21698501376002532e+00
24 27 1.19904775484587267e+00
25 27 1.18027322083330111e+00
26 27 1.16067260542843464e+00
27 27 1.14025887831065686e+00
28 27 1.11904676557447758e+00
29 27 1.09705272107823437e+00
30 27 1.07429488875184154e+00
31 27 1.05079305600144202e+00
32 27 1.02656859843436599e+00
33 27 1.00164441621195133e+00
34 27 9.76044862419173764e-01
35 27 9.49795663917589739e-01
36 27 9.22923835220363142e-01
37 27 8.95457585994237859e-01
38 27 8.67426222852127560e-01
39 27 8.38860046150590621e-01
40 27 8.09790242548297456e-01
41 27 7.80248774113929899e-01
42 27 7.50268264794591078e-01
43 27 7.19881885068367589e-01
44 27 6.89123235607371987e-01
45 27 6.58026230770385578e-01
46 27 6.26624982727618240e-01
47 27 5.94953686994485920e-01
48 27 5.63046510117436227e-01
49 27 5.30937480213393709e-01
50 27 4.98660381016331256e-01
51 27 4.66248650030641532e-01
52 27 4.33735281332518374e-01
53 27 4.01152733498401526e-01
54 27 3.68532843074793059e-01
55 27 3.35906743937464225e-01
56 27 3.03304792821218694e-01
57 27 2.70756501234916624e-01
58 27 2.38290473911319162e-01
59 27 2.05934353878234055e-01
60 27 1.73714774177190806e-01
61 27 1.41657316199050337e-01
62 27 1.09786474553063132e-01
63 27 7.81256283373793353e-02
64 27 4.66970186351488639e-02
65 27 1.55217320213886251e-02
66 27 8.56296004091313525e-17
1 28 1.41406249999999956e+00
2 28 1.41406250000000067e+00
3 28 1.41336263122019079e+00
4 28 1.41194447150775115e+00
5 28 1.40979020701335522e+00
6 28 1.40688271231360695e+00
7 28 1.40320563168943280e+00
8 28 1.39874346111553072e+00
9 28 1.39348163047907025e+00
10 28 1.38740658551130669e+00
11 28 1.38050586888448223e+00
12 28 1.37276819989887677e+00
13 28 1.36418355216195208e+00
14 28 1.35474322864384167e+00
15 28 1.34443993348155511e+00
16 28 1.33326783989890507e+00
17 28 1.32122265361073810e+00
18 28 1.30830167108905404e+00
19 28 1.29450383208534414e+00
20 28 1.27982976582822650e+00
21 28 1.26428183034818997e+00
22 28 1.24786414442216120e+00
23 28 1.23058261167913163e+00
24 28 1.21244493646426243e+00
25 28 1.19346063112194134e+00
26 28 1.17364101442763502e+00
27 28 1.15299920097334563e+00
28 28 1.13155008139095226e+00
29 28 1.10931029338078435e+00
30 28 1.08629818359823083e+00
31 28 1.06253376053777093e+00
32 28 1.03803863864033663e+00
33 28 1.01283597393498992e+00
34 28 9.86950391608214739e-01
35 28 9.60407905972534892e-01
36 28 9.33235833379249868e-01
37 28 9.05462698686910872e-01
38 28 8.77118135956620693e-01
39 28 8.48232784096407344e-01
40 28 8.18838178219228219e-01
41 28 7.88966637511851032e-01
42 28 7.58651150434754173e-01
43 28 7.27925258085891258e-01
44 28 6.96822936563879058e-01
45 28 6.65378479158881486e-01
46 28 6.33626379182675281e-01
47 28 6.01601214223474678e-01
48 28 5.69337532576848937e-01
49 28 5.36869742562146701e-01
50 28 5.04232005385228832e-01
51 28 4.71458132153888987e-01
52 28 4.38581485593216913e-01
53 28 4.05634886945311079e-01
54 28 3.72650528472276699e-01
55 28 3.39659891914419143e-01
56 28 3.06693673187936222e-01
57 28 2.73781713539217375e-01
58 28 2.40952937306976395e-01
59 28 2.08235296379666812e-01
60 28 1.75655721374701340e-01
61 28 1.43240079508536955e-01
62 28 1.11013139073209088e-01
63 28 7.89985403858416563e-02
64 28 4.72187730333069461e-02
65 28 1.56951591948119619e-02
66 28 8.65863557209652208e-17
1 29 1.42968749999999933e+00
2 29 1.42968750000000067e+00
3 29 1.42897989786350776e+00
4 29 1.42754606787800231e+00
5 29 1.42536799935604419e+00
6 29 1.42242837764303887e+00
7 29 1.41871066629373566e+00
8 29 1.41419918996763605e+00
9 29 1.40887921755618684e+00
10 29 1.40273704501971896e+00
11 29 1.39576007738044350e+00
12 29 1.38793690929002445e+00
13 29 1.37925740356705662e+00
14 29 1.36971276708189538e+00
15 29 1.35929562335427923e+00
16 29 1.34800008122375492e+00
17 29 1.33582179895450337e+00
18 29 1.32275804314528656e+00
19 29 1.30880774183214377e+00
20 29 1.29397153119649433e+00
21 29 1.27825179532441302e+00
22 29 1.26165269850417405e+00
23 29 1.24418020959823794e+00
24 29 1.22584211808265198e+00
25 29 1.20664804141058135e+00
26 29 1.18660942342683562e+00
27 29 1.16573952363603461e+00
28 29 1.14405339720742671e+00
29 29 1.12156786568333455e+00
30 29 1.09830147844462012e+00
31 29 1.07427446507410007e+00
32 29 1.04950867884630727e+00
33 29 1.02402753165802851e+00
34 29 9.97855920797255824e-01
35 29 9.71020148027480046e-01
36 29 9.43547831538136594e-01
37 29 9.15467811379583885e-01
38 29 8.86810049061113714e-01
39 29 8.57605522042223845e-01
40 29 8.27886113890158870e-01
41 29 7.97684500909771943e-01
42 29 7.67034036074917158e-01
43 29 7.35968631103415039e-01
44 29 7.04522637520386019e-01
45 29 6.72730727547377394e-01
46 29 6.40627775637732433e-01
47 29 6.08248741452463437e-01
48 29 5.75628555036261758e-01
49 29 5.42802004910899694e-01
50 29 5.09803629754126408e-01
51 29 4.76667614277136387e-01
52 29 4.43427689853915452e-01
53 29 4.10117040392220578e-01
54 29 3.76768213869760449e-01
55 29 3.43413039891374061e-01
56 29 3.10082553554653750e-01
57 29 2.76806925843518126e-01
58 29 2.43615400702633572e-01
59 29 2.10536238881099597e-01
60 29 1.77596668572211847e-01
61 29 1.44822842818023545e-01
62 29 1.12239803593355045e-01
63 29 7.98714524343039772e-02
64 29 4.77405274314650352e-02
65 29 1.58685863682352969e-02
66 29 8.75431110327990891e-17
1 30 1.44531249999999933e+00
2 30 1.44531250000000067e+00
3 30 1.44459716450682474e+00
4 30 1.44314766424825391e+00
5 30 1.44094579169873316e+00
6 30 1.43797404297247122e+00
7 30 1.43421570089803874e+00
8 30 1.42965491881974138e+00
9 30 1.42427680463330364e+00
10 30 1.41806750452813124e+00
11 30 1.41101428587640476e+00
12 30 1.40310561868117234e+00
13 30 1.39433125497216137e+00
14 30 1.38468230551994886e+00
15 30 1.37415131322700379e+00
16 30 1.36273232254860455e+00
17 30 1.35042094429826864e+00
18 30 1.33721441520151929e+00
19 30 1.32311165157894339e+00
20 30 1.30811329656476194e+00
21 30 1.29222176030063629e+00
22 30 1.27544125258618712e+00
23 30 1.25777780751734447e+00
24 30 1.23923929970104174e+00
25 30 1.21983545169922158e+00
26 30 1.19957783242603622e+00
27 30 1.17847984629872360e+00
28 30 1.15655671302390117e+00
29 30 1.13382543798588453e+00
30 30 1.11030477329100941e+00
31 30 1.08601516961042921e+00
32 30 1.06097871905227792e+00
33 30 1.03521908938106710e+00
34 30 1.00876144998629691e+00
35 30 9.81632390082425199e-01
36 30 9.53859829697023209e-01
37 30 9.25472924072257008e-01
38 30 8.96501962165606847e-01
39 30 8.66978259988040456e-01
40 30 8.36934049561089521e-01
41 30 8.06402364307692965e-01
42 30 7.75416921715080254e-01
43 30 7.44012004120938708e-01
44 30 7.12222338476892980e-01
45 30 6.80082975935873302e-01
46 30 6.47629172092789585e-01
47 30 6.14896268681452196e-01
48 30 5.81919577495674467e-01
49 30 5.48734267259652686e-01
50 30 5.15375254123023985e-01
51 30 4.81877096400383731e-01
52 30 4.48273894114613936e-01
53 30 4.14599193839130020e-01
54 30 3.80885899267244199e-01
55 30 3.47166187868328979e-01
56 30 3.13471433921371279e-01
57 30 2.79832138147818876e-01
58 30 2.46277864098290777e-01
59 30 2.12837181382532353e-01
60 30 1.79537615769722381e-01
61 30 1.46405606127510163e-01
62 30 1.13466468113501015e-01
63 30 8.07443644827663121e-02
64 30 4.82622818296231174e-02
65 30 1.60420135416586354e-02
66 30 8.84998663446329698e-17
1 31 1.46093749999999933e+00
2 31 1.46093750000000067e+00
3 31 1.46021443115014171e+00
4 31 1.45874926061850529e+00
5 31 1.45652358404142213e+00
6 31 1.45351970830190358e+00
7 31 1.44972073550234182e+00
8 31 1.44511064767184649e+00
9 31 1.43967439171042066e+00
10 31 1.43339796403654351e+00
11 31 1.42626849437236602e+00
12 31 1.41827432807232023e+00
13 31 1.40940510637726568e+00
14 31 1.39965184395800257e+00
15 31 1.38900700309972813e+00
16 31 1.37746456387345440e+00
17 31 1.36502008964203370e+00
18 31 1.35167078725775180e+00
19 31 1.33741556132574280e+00
20 31 1.32225506193302955e+00
21 31 1.30619172527685934e+00
22 31 1.28922980666820020e+00
23 31 1.27137540543645078e+00
24 31 1.25263648131943128e+00
25 31 1.23302286198786182e+00
26 31 1.21254624142523659e+00
27 31 1.19122016896141236e+00
28 31 1.16906002884037585e+00
29 31 1.14608301028843451e+00
30 31 1.12230806813739870e+00
31 31 1.09775587414675835e+00
32 31 1.07244875925824856e+00
33 31 1.04641064710410570e+00
34 31 1.01966697917533811e+00
35 31 9.92244632137370464e-01
36 31 9.64171827855910046e-01
37 31 9.35478036764930243e-01
38 31 9.06193875270099869e-01
39 31 8.76350997933857068e-01
40 31 8.45981985232020173e-01
41 31 8.15120227705613987e-01
42 31 7.83799807355243128e-01
43 31 7.52055377138462489e-01
44 31 7.19922039433399830e-01
45 31 6.87435224324369210e-01
46 31 6.54630568547846625e-01
47 31 6.21543795910440844e-01
48 31 5.88210599955087177e-01
49 31 5.54666529608405678e-01
50 31 5.20946878491921561e-01
51 31 4.87086578523631131e-01
52 31 4.53120098375312474e-01
53 31 4.19081347286039518e-01
54 31 3.85003584664727894e-01
55 31 3.50919335845283897e-01
56 31 3.16860314288088807e-01
57 31 2.82857350452119627e-01
58 31 2.48940327493947983e-01
59 31 2.15138123883965138e-01
60 31 1.81478562967232915e-01
61 31 1.47988369436996753e-01
62 31 1.14693132633646985e-01
63 31 8.16172765312286608e-02
64 31 4.87840362277811995e-02
65 31 1.62154407150819704e-02
66 31 8.94566216564668382e-17
1 32 1.47656249999999933e+00
2 32 1.47656250000000089e+00
3 32 1.47583169779345869e+00
4 32 1.47435085698875690e+00
5 32 1.47210137638411109e+00
6 32 1.46906537363133571e+00
7 32 1.46522577010664490e+00
8 32 1.46056637652395205e+00
9 32 1.45507197878753725e+00
10 32 1.44872842354495579e+00
11 32 1.44152270286832707e+00
12 32 1.43344303746346813e+00
13 32 1.42447895778236999e+00
14 32 1.41462138239605584e+00
15 32 1.40386269297245270e+00
16 32 1.39219680519830424e+00
17 32 1.37961923498579875e+00
18 32 1.36612715931398432e+00
19 32 1.35171947107254242e+00
20 32 1.33639682730129739e+00
21 32 1.32016169025308239e+00
22 32 1.30301836075021282e+00
23 32 1.28497300335555753e+00
24 32 1.26603366293782105e+00
25 32 1.24621027227650205e+00
26 32 1.22551465042443697e+00
27 32 1.20396049162410113e+00
28 32 1.18156334465685053e+00
29 32 1.15834058259098471e+00
30 32 1.13431136298378821e+00
31 32 1.10949657868308749e+00
32 32 1.08391879946421921e+00
33 32 1.05760220482714429e+00
34 32 1.03057250836437908e+00
35 32 1.00285687419231562e+00
36 32 9.74483826014796772e-01
37 32 9.45483149457603256e-01
38 32 9.15885788374593113e-01
39 32 8.85723735879673790e-01
40 32 8.55029920902950935e-01
41 32 8.23838091103535008e-01
42 32 7.92182692995406224e-01
43 32 7.60098750155986158e-01
44 32 7.27621740389906790e-01
45 32 6.94787472712865006e-01
46 32 6.61631965002903888e-01
47 32 6.28191323139429492e-01
48 32 5.94501622414499997e-01
49 32 5.60598791957158671e-01
50 32 5.26518502860819138e-01
51 32 4.92296060646878531e-01
52 32 4.57966302636011013e-01
53 32 4.23563500732949072e-01
54 32 3.89121270062211644e-01
55 32 3.54672483822238815e-01
56 32 3.20249194654806335e-01
57 32 2.85882562756420378e-01
58 32 2.51602790889605188e-01
59 32 2.17439066385397922e-01
60 32 1.83419510164743421e-01
61 32 1.49571132746483343e-01
62 32 1.15919797153792956e-01
63 32 8.24901885796909956e-02
64 32 4.93057906259392886e-02
65 32 1.63888678885053089e-02
66 32 9.04133769683006942e-17
1 33 1.49218749999999933e+00
2 33 1.49218750000000089e+00
3 33 1.49144896443677566e+00
4 33 1.48995245335900828e+00
5 33 1.48767916872680006e+00
6 33 1.48461103896076763e+00
7 33 1.48073080471094798e+00
8 33 1.47602210537605738e+00
9 33 1.47046956586465383e+00
10 33 1.46405888305336807e+00
11 33 1.45677691136428811e+00
12 33 1.44861174685461580e+00
13 33 1.43955280918747452e+00
14 33 1.42959092083410932e+00
15 33 1.41871838284517726e+00
16 33 1.40692904652315409e+00
17 33 1.39421838032956402e+00
18 33 1.38058353137021683e+00
19 33 1.36602338081934183e+00
20 33 1.35053859266956500e+00
21 33 1.33413165522930544e+00
22 33 1.31680691483222567e+00
23 33 1.29857060127466384e+00
24 33 1.27943084455621059e+00
25 33 1.25939768256514228e+00
26 33 1.23848305942363734e+00
27 33 1.21670081428679011e+00
28 33 1.19406666047332521e+00
29 33 1.17059815489353469e+00
30 33 1.14631465783017750e+00
31 33 1.12123728321941640e+00
32 33 1.09538883967018985e+00
33 33 1.06879376255018288e+00
34 33 1.04147803755342006e+00
35 33 1.01346911624726088e+00
36 33 9.84795824173683498e-01
37 33 9.55488262150276380e-01
38 33 9.25577701479086246e-01
39 33 8.95096473825490402e-01
40 33 8.64077856573881697e-01
41 33 8.32555954501455919e-01
42 33 8.00565578635569097e-01
43 33 7.68142123173509717e-01
44 33 7.35321441346413640e-01
45 33 7.02139721101360914e-01
46 33 6.68633361457961151e-01
47 33 6.34838850368418139e-01
48 33 6.00792644873912707e-01
49 33 5.66531054305911663e-01
50 33 5.32090127229716714e-01
51 33 4.97505542770125875e-01
52 33 4.62812506896709552e-01
53 33 4.28045654179858626e-01
54 33 3.93238955459695394e-01
55 33 3.58425631799193734e-01
56 33 3.23638075021523863e-01
57 33 2.88907775060721128e-01
58 33 2.54265254285262365e-01
59 33 2.19740008886830707e-01
60 33 1.85360457362253900e-01
61 33 1.51153896055969933e-01
62 33 1.17146461673938912e-01
63 33 8.33631006281533443e-02
64 33 4.98275450240973777e-02
65 33 1.65622950619286440e-02
66 33 9.13701322801345625e-17
1 34 1.50781249999999933e+00
2 34 1.50781250000000111e+00
3 34 1.50706623108009263e+00
4 34 1.50555404972925988e+00
5 34 1.50325696106948925e+00
6 34 1.50015670429019998e+00
7 34 1.49623583931525106e+00
8 34 1.49147783422816271e+00
9 34 1.48586715294177041e+00
10 34 1.47938934256178034e+00
11 34 1.47203111986024937e+00
12 34 1.46378045624576347e+00
13 34 1.45462666059257884e+00
14 34 1.44456045927216281e+00
15 34 1.43357407271790160e+00
16 34 1.42166128784800372e+00
17 34 1.40881752567332885e+00
18 34 1.39503990342644935e+00
19 34 1.38032729056614123e+00
20 34 1.36468035803783283e+00
21 34 1.34810162020552848e+00
22 34 1.33059546891423852e+00
23 34 1.31216819919377037e+00
24 34 1.29282802617460035e+00
25 34 1.27258509285378274e+00
26 34 1.25145146842283772e+00
27 34 1.22944113694947910e+00
28 34 1.20656997628979989e+00
29 34 1.18285572719608489e+00
30 34 1.15831795267656679e+00
31 34 1.13297798775574532e+00
32 34 1.10685887987616027e+00
33 34 1.07998532027322147e+00
34 34 1.05238356674246125e+00
35 34 1.02408135830220592e+00
36 34 9.95107822332570224e-01
37 34 9.65493374842949392e-01
38 34 9.35269614583579267e-01
39 34 9.04469211771307124e-01
40 34 8.73125792244812460e-01
41 34 8.41273817899376941e-01
42 34 8.08948464275731971e-01
43 34 7.76185496191033386e-01
44 34 7.43021142302920490e-01
45 34 7.09491969489856933e-01
46 34 6.75634757913018524e-01
47 34 6.41486377597406787e-01
48 34 6.07083667333325305e-01
49 34 5.72463316654664656e-01
50 34 5.37661751598614290e-01
51 34 5.02715024893373275e-01
52 34 4.67658711157408036e-01
53 34 4.32527807626768179e-01
54 34 3.97356640857179089e-01
55 34 3.62178779776148596e-01
56 34 3.27026955388241392e-01
57 34 2.91932987365021879e-01
58 34 2.56927717680919598e-01
59 34 2.22040951388263491e-01
60 34 1.87301404559764406e-01
61 34 1.52736659365456523e-01
62 34 1.18373126194084868e-01
63 34 8.42360126766156792e-02
64 34 5.03492994222554599e-02
65 34 1.67357222353519824e-02
66 34 9.23268875919684309e-17
1 35 1.52343749999999933e+00
2 35 1.52343750000000111e+00
3 35 1.52268349772340983e+00
4 35 1.52115564609951126e+00
5 35 1.51883475341217822e+00
6 35 1.51570236961963212e+00
7 35 1.51174087391955436e+00
8 35 1.50693356308026805e+00
9 35 1.50126474001888721e+00
10 35 1.49471980207019239e+00
11 35 1.48728532835621041e+00
12 35 1.47894916563691137e+00
13 35 1.46970051199768315e+00
14 35 1.45952999771021652e+00
15 35 1.44842976259062595e+00
16 35 1.43639352917285334e+00
17 35 1.42341667101709368e+00
18 35 1.40949627548268186e+00
19 35 1.39463120031294063e+00
20 35 1.37882212340610066e+00
21 35 1.36207158518175153e+00
22 35 1.34438402299625137e+00
23 35 1.32576579711287668e+00
24 35 1.30622520779298990e+00
25 35 1.28577250314242297e+00
26 35 1.26441987742203787e+00
27 35 1.24218145961216808e+00
28 35 1.21907329210627458e+00
29 35 1.19511329949863510e+00
30 35 1.17032124752295608e+00
31 35 1.14471869229207424e+00
32 35 1.11832892008213092e+00
33 35 1.09117687799625984e+00
34 35 1.06328909593150223e+00
35 35 1.03469360035715119e+00
36 35 1.00541982049145706e+00
37 35 9.75498487535622405e-01
38 35 9.44961527688072400e-01
39 35 9.13841949717123847e-01
40 35 8.82173727915743111e-01
41 35 8.49991681297298074e-01
42 35 8.17331349915895067e-01
43 35 7.84228869208557056e-01
44 35 7.50720843259427451e-01
45 35 7.16844217878352952e-01
46 35 6.82636154368075676e-01
47 35 6.48133904826395435e-01
48 35 6.13374689792738015e-01
49 35 5.78395579003417648e-01
50 35 5.43233375967511867e-01
51 35 5.07924507016620730e-01
52 35 4.72504915418106575e-01
53 35 4.37009961073677677e-01
54 35 4.01474326254662839e-01
55 35 3.65931927753103514e-01
56 35 3.30415835754958920e-01
57 35 2.94958199669322629e-01
58 35 2.59590181076576776e-01
59 35 2.24341893889696276e-01
60 35 1.89242351757274913e-01
61 35 1.54319422674943113e-01
62 35 1.19599790714230839e-01
63 35 8.51089247250780140e-02
64 35 5.08710538204135490e-02
65 35 1.69091494087753209e-02
66 35 9.32836429038022992e-17
1 36 1.53906249999999933e+00
2 36 1.53906250000000111e+00
3 36 1.53830076436672702e+00
4 36 1.53675724246976286e+00
5 36 1.53441254575486719e+00
6 36 1.53124803494906425e+00
7 36 1.52724590852385766e+00
8 36 1.52238929193237360e+00
9 36 1.51666232709600401e+00
10 36 1.51005026157860489e+00
11 36 1.50253953685217168e+00
12 36 1.49411787502805926e+00
13 36 1.48477436340278790e+00
14 36 1.47449953614827001e+00
15 36 1.46328545246335029e+00
16 36 1.45112577049770319e+00
17 36 1.43801581636085873e+00
18 36 1.42395264753891437e+00
19 36 1.40893511005973981e+00
20 36 1.39296388877436828e+00
21 36 1.37604155015797458e+00
22 36 1.35817257707826422e+00
23 36 1.33936339503198298e+00
24 36 1.31962238941137944e+00
25 36 1.29895991343106321e+00
26 36 1.27738828642123803e+00
27 36 1.25492178227485685e+00
28 36 1.23157660792274903e+00
29 36 1.20737087180118530e+00
30 36 1.18232454236934559e+00
31 36 1.15645939682840337e+00
32 36 1.12979896028810156e+00
33 36 1.10236843571929843e+00
34 36 1.07419462512054320e+00
35 36 1.04530584241209645e+00
36 36 1.01573181865034368e+00
37 36 9.85503600228295418e-01
38 36 9.54653440792565422e-01
39 36 9.23214687662940570e-01
40 36 8.91221663586673762e-01
41 36 8.58709544695219096e-01
42 36 8.25714235556058052e-01
43 36 7.92272242226080614e-01
44 36 7.58420544215934300e-01
45 36 7.24196466266848971e-01
46 36 6.89637550823132939e-01
47 36 6.54781432055384194e-01
48 36 6.19665712252150724e-01
49 36 5.84327841352170640e-01
50 36 5.48805000336409443e-01
51 36 5.13133989139868074e-01
52 36 4.77351119678805058e-01
53 36 4.41492114520587231e-01
54 36 4.05592011652146589e-01
55 36 3.69685075730058432e-01
56 36 3.33804716121676448e-01
57 36 2.97983411973623380e-01
58 36 2.62252644472233953e-01
59 36 2.26642836391129060e-01
60 36 1.91183298954785447e-01
61 36 1.55902185984429703e-01
62 36 1.20826455234376781e-01
63 36 8.59818367735403488e-02
64 36 5.13928082185716312e-02
65 36 1.70825765821986594e-02
66 36 9.42403982156361676e-17
1 37 1.55468749999999933e+00
2 37 1.55468750000000111e+00
3 37 1.55391803101004422e+00
4 37 1.55235883884001424e+00
5 37 1.54999033809755615e+00
6 37 1.54679370027849639e+00
7 37 1.54275094312816075e+00
8 37 1.53784502078447893e+00
9 37 1.53205991417312082e+00
10 37 1.52538072108701694e+00
11 37 1.51779374534813294e+00
12 37 1.50928658441920693e+00
13 37 1.49984821480789221e+00
14 37 1.48946907458632372e+00
15 37 1.47814114233607485e+00
16 37 1.46585801182255304e+00
17 37 1.45261496170462379e+00
18 37 1.43840901959514689e+00
19 37 1.42323901980653922e+00
20 37 1.40710565414263589e+00
21 37 1.39001151513419785e+00
22 37 1.37196113116027707e+00
23 37 1.35296099295108929e+00
24 37 1.33301957102976920e+00
25 37 1.31214732371970344e+00
26 37 1.29035669542043840e+00
27 37 1.26766210493754561e+00
28 37 1.24407992373922349e+00
29 37 1.21962844410373550e+00
30 37 1.19432783721573488e+00
31 37 1.16820010136473229e+00
32 37 1.14126900049407221e+00
33 37 1.11355999344233703e+00
34 37 1.08510015430958418e+00
35 37 1.05591808446704172e+00
36 37 1.02604381680923051e+00
37 37 9.95508712920968541e-01
38 37 9.64345353897058555e-01
39 37 9.32587425608757292e-01
40 37 9.00269599257604414e-01
41 37 8.67427408093140118e-01
42 37 8.34097121196221036e-01
43 37 8.00315615243604284e-01
44 37 7.66120245172441261e-01
45 37 7.31548714655344878e-01
46 37 6.96638947278190090e-01
47 37 6.61428959284372842e-01
48 37 6.25956734711563323e-01
49 37 5.90260103700923744e-01
50 37 5.54376624705307020e-01
51 37 5.18343471263115418e-01
52 37 4.82197323939503597e-01
53 37 4.45974267967496785e-01
54 37 4.09709697049630284e-01
55 37 3.73438223707013350e-01
56 37 3.37193596488393976e-01
57 37 3.01008624277924075e-01
58 37 2.64915107867891186e-01
59 37 2.28943778892561817e-01
60 37 1.93124246152295953e-01
61 37 1.57484949293916321e-01
62 37 1.22053119754522724e-01
63 37 8.68547488220026837e-02
64 37 5.19145626167297133e-02
65 37 1.72560037556219979e-02
66 37 9.51971535274700482e-17
1 38 1.57031249999999933e+00
2 38 1.57031250000000111e+00
3 38 1.56953529765336142e+00
4 38 1.56796043521026540e+00
5 38 1.56556813044024512e+00
6 38 1.56233936560792830e+00
7 38 1.55825597773246383e+00
8 38 1.55330074963658427e+00
9 38 1.54745750125023762e+00
10 38 1.54071118059542922e+00
11 38 1.53304795384409398e+00
12 38 1.52445529381035461e+00
13 38 1.51492206621299697e+00
14 38 1.50443861302437742e+00
15 38 1.49299683220879920e+00
16 38 1.48059025314740267e+00
17 38 1.46721410704838862e+00
18 38 1.45286539165137962e+00
19 38 1.43754292955333884e+00
20 38 1.42124741951090350e+00
21 38 1.40398148011042090e+00
22 38 1.38574968524229014e+00
23 38 1.36655859087019582e+00
24 38 1.34641675264815874e+00
25 38 1.32533473400834367e+00
26 38 1.30332510441963900e+00
27 38 1.28040242760023459e+00
28 38 1.25658323955569795e+00
29 38 1.23188601640628570e+00
30 38 1.20633113206212417e+00
31 38 1.17994080590106121e+00
32 38 1.15273904070004285e+00
33 38 1.12475155116537540e+00
34 38 1.09600568349862515e+00
35 38 1.06653032652198698e+00
36 38 1.03635581496811735e+00
37 38 1.00551382561364178e+00
38 38 9.74037267001551688e-01
39 38 9.41960163554573904e-01
40 38 9.09317534928535176e-01
41 38 8.76145271491061028e-01
42 38 8.42480006836384021e-01
43 38 8.08358988261127953e-01
44 38 7.73819946128948111e-01
45 38 7.38900963043840786e-01
46 38 7.03640343733247242e-01
47 38 6.68076486513361378e-01
48 38 6.32247757170976143e-01
49 38 5.96192366049676625e-01
50 38 5.59948249074204596e-01
51 38 5.23552953386362763e-01
52 38 4.87043528200202080e-01
53 38 4.50456421414406338e-01
54 38 4.13827382447113978e-01
55 38 3.77191371683968213e-01
56 38 3.40582476855111504e-01
57 38 3.04033836582224770e-01
58 38 2.67577571263548419e-01
59 38 2.31244721393994573e-01
60 38 1.95065193349806459e-01
61 38 1.59067712603402911e-01
62 38 1.23279784274668666e-01
63 38 8.77276608704650185e-02
64 38 5.24363170148878024e-02
65 38 1.74294309290453364e-02
66 38 9.61539088393039289e-17
1 39 1.58593749999999933e+00
2 39 1.58593750000000111e+00
3 39 1.58515256429667861e+00
4 39 1.58356203158051656e+00
5 39 1.58114592278293409e+00
6 39 1.57788503093736043e+00
7 39 1.57376101233676691e+00
8 39 1.56875647848868982e+00
9 39 1.56285508832735442e+00
10 39 1.55604164010384127e+00
11 39 1.54830216234005480e+00
12 39 1.53962400320150250e+00
13 39 1.52999591761810128e+00
14 39 1.51940815146243091e+00
15 39 1.50785252208152376e+00
16 39 1.49532249447225252e+00
17 39 1.48181325239215345e+00
18 39 1.46732176370761236e+00
19 39 1.45184683930013825e+00
20 39 1.43538918487917133e+00
21 39 1.41795144508664395e+00
22 39 1.39953823932430299e+00
23 39 1.38015618878930235e+00
24 39 1.35981393426654806e+00
25 39 1.33852214429698391e+00
26 39 1.31629351341883938e+00
27 39 1.29314275026292358e+00
28 39 1.26908655537217241e+00
29 39 1.24414358870883568e+00
30 39 1.21833442690851346e+00
31 39 1.19168151043739012e+00
32 39 1.16420908090601349e+00
33 39 1.13594310888841399e+00
34 39 1.10691121268766635e+00
35 39 1.07714256857693202e+00
36 39 1.04666781312700419e+00
37 39 1.01551893830631479e+00
38 39 9.83729180106044709e-01
39 39 9.51332901500390515e-01
40 39 9.18365470599465827e-01
41 39 8.84863134888981939e-01
42 39 8.50862892476547117e-01
43 39 8.16402361278651512e-01
44 39 7.81519647085455071e-01
45 39 7.46253211432336805e-01
46 39 7.10641740188304505e-01
47 39 6.74724013742350026e-01
48 39 6.38538779630388742e-01
49 39 6.02124628398429618e-01
50 39 5.65519873443102172e-01
51 39 5.28762435509610107e-01
52 39 4.91889732460900619e-01
53 39 4.54938574861315892e-01
54 39 4.17945067844597673e-01
55 39 3.80944519660923131e-01
56 39 3.43971357221829033e-01
57 39 3.07059048886525521e-01
58 39 2.70240034659205597e-01
59 39 2.33545663895427386e-01
60 39 1.97006140547316938e-01
61 39 1.60650475912889473e-01
62 39 1.24506448794814623e-01
63 39 8.86005729189273533e-02
64 39 5.29580714130458916e-02
65 39 1.76028581024686714e-02
66 39 9.71106641511377849e-17
1 40 1.60156249999999956e+00
2 40 1.60156250000000111e+00
3 40 1.60076983093999559e+00
4 40 1.59916362795076816e+00
5 40 1.59672371512562328e+00
6 40 1.59343069626679279e+00
7 40 1.58926604694106999e+00
8 40 1.58421220734079493e+00
9 40 1.57825267540447145e+00
10 40 1.57137209961225333e+00
11 40 1.56355637083601584e+00
12 40 1.55479271259265039e+00
13 40 1.54506976902320581e+00
14 40 1.53437768990048440e+00
15 40 1.52270821195424810e+00
16 40 1.51005473579710237e+00
17 40 1.49641239773591828e+00
18 40 1.48177813576384487e+00
19 40 1.46615074904693765e+00
20 40 1.44953095024743894e+00
21 40 1.43192141006286700e+00
22 40 1.41332679340631584e+00
23 40 1.39375378670840866e+00
24 40 1.37321111588493761e+00
25 40 1.35170955458562414e+00
26 40 1.32926192241803998e+00
27 40 1.30588307292561256e+00
28 40 1.28158987118864709e+00
29 40 1.25640116101138566e+00
30 40 1.23033772175490275e+00
31 40 1.20342221497371904e+00
32 40 1.17567912111198414e+00
33 40 1.14713466661145236e+00
34 40 1.11781674187670732e+00
35 40 1.08775481063187729e+00
36 40 1.05697981128589102e+00
37 40 1.02552405099898780e+00
38 40 9.93421093210537620e-01
39 40 9.60705639446207238e-01
40 40 9.27413406270396590e-01
41 40 8.93580998286902850e-01
42 40 8.59245778116710102e-01
43 40 8.24445734296175181e-01
44 40 7.89219348041961921e-01
45 40 7.53605459820832713e-01
46 40 7.17643136643361657e-01
47 40 6.81371540971338674e-01
48 40 6.44829802089801341e-01
49 40 6.08056890747182610e-01
50 40 5.71091497811999638e-01
51 40 5.33971917632857562e-01
52 40 4.96735936721599158e-01
53 40 4.59420728308225446e-01
54 40 4.22062753242081368e-01
55 40 3.84697667637878049e-01
56 40 3.47360237588546561e-01
57 40 3.10084261190826271e-01
58 40 2.72902498054862830e-01
59 40 2.35846606396860170e-01
60 40 1.98947087744827472e-01
61 40 1.62233239222376091e-01
62 40 1.25733113314960593e-01
63 40 8.94734849673897020e-02
64 40 5.34798258112039737e-02
65 40 1.77762852758920065e-02
66 40 9.80674194629716533e-17
1 41 1.61718749999999956e+00
2 41 1.61718750000000111e+00
3 41 1.61638709758331234e+00
4 41 1.61476522432101954e+00
5 41 1.61230150746831247e+00
6 41 1.60897636159622492e+00
7 41 1.60477108154537307e+00
8 41 1.59966793619290004e+00
9 41 1.59365026248158825e+00
10 41 1.58670255912066560e+00
11 41 1.57881057933197710e+00
12 41 1.56996142198379807e+00
13 41 1.56014362042831034e+00
14 41 1.54934722833853811e+00
15 41 1.53756390182697222e+00
16 41 1.52478697712195199e+00
17 41 1.51101154307968333e+00
18 41 1.49623450782007761e+00
19 41 1.48045465879373728e+00
20 41 1.46367271561570655e+00
21 41 1.44589137503909004e+00
22 41 1.42711534748832869e+00
23 41 1.40735138462751519e+00
24 41 1.38660829750332737e+00
25 41 1.36489696487426437e+00
26 41 1.34223033141724013e+00
27 41 1.31862339558830133e+00
28 41 1.29409318700512177e+00
29 41 1.26865873331393586e+00
30 41 1.24234101660129226e+00
31 41 1.21516291951004818e+00
32 41 1.18714916131795478e+00
33 41 1.15832622433449095e+00
34 41 1.12872227106574852e+00
35 41 1.09836705268682255e+00
36 41 1.06729180944477786e+00
37 41 1.03552916369166081e+00
38 41 1.00311300631503064e+00
39 41 9.70078377392023961e-01
40 41 9.36461341941327241e-01
41 41 9.02298861684823872e-01
42 41 8.67628663756873197e-01
43 41 8.32489107313698962e-01
44 41 7.96919048998468771e-01
45 41 7.60957708209328620e-01
46 41 7.24644533098418919e-01
47 41 6.88019068200327322e-01
48 41 6.51120824549214161e-01
49 41 6.13989153095935714e-01
50 41 5.76663122180897214e-01
51 41 5.39181399756104907e-01
52 41 5.01582140982297697e-01
53 41 4.63902881755134944e-01
54 41 4.26180438639565062e-01
55 41 3.88450815614832967e-01
56 41 3.50749117955264145e-01
57 41 3.13109473495127022e-01
58 41 2.75564961450520007e-01
59 41 2.38147548898292954e-01
60 41 2.00888034942338006e-01
61 41 1.63816002531862709e-01
62 41 1.26959777835106535e-01
63 41 9.03463970158520369e-02
64 41 5.40015802093620628e-02
65 41 1.79497124493153450e-02
66 41 9.90241747748055339e-17
1 42 1.63281249999999956e+00
2 42 1.63281250000000111e+00
3 42 1.63200436422662931e+00
4 42 1.63036682069127092e+00
5 42 1.62787929981100166e+00
6 42 1.62452202692565706e+00
7 42 1.62027611614967615e+00
8 42 1.61512366504500560e+00
9 42 1.60904784955870506e+00
10 42 1.60203301862907788e+00
11 42 1.59406478782793837e+00
12 42 1.58513013137494596e+00
13 42 1.57521747183341465e+00
14 42 1.56431676677659159e+00
15 42 1.55241959169969657e+00
16 42 1.53951921844680162e+00
17 42 1.52561068842344860e+00
18 42 1.51069087987631034e+00
19 42 1.49475856854053668e+00
20 42 1.47781448098397417e+00
21 42 1.45986134001531287e+00
22 42 1.44090390157034154e+00
23 42 1.42094898254662172e+00
24 42 1.40000547912171691e+00
25 42 1.37808437516290461e+00
26 42 1.35519874041644051e+00
27 42 1.33136371825099009e+00
28 42 1.30659650282159623e+00
29 42 1.28091630561648606e+00
30 42 1.25434431144768155e+00
31 42 1.22690362404637732e+00
32 42 1.19861920152392520e+00
33 42 1.16951778205752954e+00
34 42 1.13962780025478971e+00
35 42 1.10897929474176760e+00
36 42 1.07760380760366448e+00
37 42 1.04553427638433383e+00
38 42 1.01280491941952366e+00
39 42 9.79451115337840572e-01
40 42 9.45509277612258003e-01
41 42 9.11016725082744783e-01
42 42 8.76011549397036071e-01
43 42 8.40532480331222631e-01
44 42 8.04618749954975732e-01
45 42 7.68309956597824528e-01
46 42 7.31645929553476071e-01
47 42 6.94666595429315969e-01
48 42 6.57411847008626871e-01
49 42 6.19921415444688706e-01
50 42 5.82234746549794679e-01
51 42 5.44390881879352251e-01
52 42 5.06428345242996292e-01
53 42 4.68385035202044497e-01
54 42 4.30298124037048813e-01
55 42 3.92203963591787830e-01
56 42 3.54137998321981673e-01
57 42 3.16134685799427828e-01
58 42 2.78227424846177185e-01
59 42 2.40448491399725739e-01
60 42 2.02828982139848540e-01
61 42 1.65398765841349299e-01
62 42 1.28186442355252506e-01
63 42 9.12193090643143856e-02
64 42 5.45233346075201519e-02
65 42 1.81231396227386800e-02
66 42 9.99809300866394146e-17
1 43 1.64843749999999978e+00
2 43 1.64843750000000111e+00
3 43 1.64762163086994651e+00
4 43 1.64596841706152230e+00
5 43 1.64345709215369085e+00
6 43 1.64006769225508919e+00
7 43 1.63578115075397923e+00
8 43 1.63057939389711093e+00
9 43 1.62444543663582186e+00
10 43 1.61736347813748993e+00
11 43 1.60931899632389963e+00
12 43 1.60029884076609386e+00
13 43 1.59029132323851896e+00
14 43 1.57928630521464530e+00
15 43 1.56727528157242091e+00
16 43 1.55425145977165124e+00
17 43 1.54020983376721365e+00
18 43 1.52514725193254308e+00
19 43 1.50906247828733608e+00
20 43 1.49195624635224178e+00
21 43 1.47383130499153614e+00
22 43 1.45469245565235439e+00
23 43 1.43454658046572825e+00
24 43 1.41340266074010668e+00
25 43 1.39127178545154506e+00
26 43 1.36816714941564066e+00
27 43 1.34410404091367885e+00
28 43 1.31909981863807091e+00
29 43 1.29317387791903626e+00
30 43 1.26634760629407062e+00
31 43 1.23864432858270623e+00
32 43 1.21008924172989585e+00
33 43 1.18070933978056813e+00
34 43 1.15053332944383091e+00
35 43 1.11959153679671264e+00
36 43 1.08791580576255131e+00
37 43 1.05553938907700684e+00
38 43 1.02249683252401669e+00
39 43 9.88823853283657184e-01
40 43 9.54557213283188655e-01
41 43 9.19734588480665916e-01
42 43 8.84394435037198945e-01
43 43 8.48575853348746301e-01
44 43 8.12318450911482692e-01
45 43 7.75662204986320436e-01
46 43 7.38647326008533223e-01
47 43 7.01314122658304728e-01
48 43 6.63702869468039580e-01
49 43 6.25853677793441698e-01
50 43 5.87806370918692256e-01
51 43 5.49600364002599595e-01
52 43 5.11274549503694775e-01
53 43 4.72867188648953996e-01
54 43 4.34415809434532563e-01
55 43 3.95957111568742748e-01
56 43 3.57526878688699201e-01
57 43 3.19159898103728523e-01
58 43 2.80889888241834418e-01
59 43 2.42749433901158551e-01
60 43 2.04769929337359075e-01
61 43 1.66981529150835861e-01
62 43 1.29413106875398448e-01
63 43 9.20922211127767204e-02
64 43 5.50450890056782410e-02
65 43 1.82965667961620150e-02
66 43 1.00937685398473295e-16
1 44 1.66406249999999978e+00
2 44 1.66406250000000111e+00
3 44 1.66323889751326348e+00
4 44 1.66157001343177368e+00
5 44 1.65903488449637981e+00
6 44 1.65561335758452133e+00
7 44 1.65128618535828253e+00
8 44 1.64603512274921626e+00
9 44 1.63984302371293866e+00
10 44 1.63269393764590220e+00
11 44 1.62457320481986089e+00
12 44 1.61546755015724175e+00
13 44 1.60536517464362349e+00
14 44 1.59425584365269857e+00
15 44 1.58213097144514525e+00
16 44 1.56898370109650109e+00
17 44 1.55480897911097871e+00
18 44 1.53960362398877582e+00
19 44 1.52336638803413549e+00
20 44 1.50609801172050939e+00
21 44 1.48780126996775919e+00
22 44 1.46848100973436724e+00
23 44 1.44814417838483478e+00
24 44 1.42679984235849644e+00
25 44 1.40445919574018530e+00
26 44 1.38113555841484126e+00
27 44 1.35684436357636784e+00
28 44 1.33160313445454537e+00
29 44 1.30543145022158646e+00
30 44 1.27835090114046013e+00
31 44 1.25038503311903537e+00
32 44 1.22155928193586627e+00
33 44 1.19190089750360673e+00
34 44 1.16143885863287211e+00
35 44 1.13020377885165790e+00
36 44 1.09822780392143793e+00
37 44 1.06554450176967985e+00
38 44 1.03218874562850971e+00
39 44 9.98196591229473795e-01
40 44 9.63605148954119306e-01
41 44 9.28452451878586826e-01
42 44 8.92777320677362041e-01
43 44 8.56619226366269859e-01
44 44 8.20018151867989653e-01
45 44 7.83014453374816455e-01
46 44 7.45648722463590374e-01
47 44 7.07961649887293487e-01
48 44 6.69993891927452290e-01
49 44 6.31785940142194802e-01
50 44 5.93377995287589832e-01
51 44 5.54809846125846939e-01
52 44 5.16120753764393370e-01
53 44 4.77349342095863494e-01
54 44 4.38533494832016313e-01
55 44 3.99710259545697666e-01
56 44 3.60915759055416729e-01
57 44 3.22185110408029218e-01
58 44 2.83552351637491651e-01
59 44 2.45050376402591308e-01
60 44 2.06710876534869609e-01
61 44 1.68564292460322451e-01
62 44 1.30639771395544418e-01
63 44 9.29651331612390552e-02
64 44 5.55668434038363301e-02
65 44 1.84699939695853535e-02
66 44 1.01894440710307164e-16
1 45 1.67968749999999956e+00
2 45 1.67968750000000111e+00
3 45 1.67885616415658045e+00
4 45 1.67717160980202529e+00
5 45 1.67461267683906900e+00
6 45 1.67115902291395346e+00
7 45 1.66679121996258583e+00
8 45 1.66149085160132159e+00
9 45 1.65524061079005547e+00
10 45 1.64802439715431448e+00
11 45 1.63982741331582194e+00
12 45 1.63063625954838964e+00
13 45 1.62043902604872780e+00
14 45 1.60922538209075205e+00
15 45 1.59698666131786959e+00
16 45 1.58371594242135094e+00
17 45 1.56940812445474376e+00
18 45 1.55405999604500833e+00
19 45 1.53767029778093489e+00
20 45 1.52023977708877700e+00
21 45 1.50177123494398246e+00
22 45 1.48226956381638009e+00
23 45 1.46174177630394109e+00
24 45 1.44019702397688620e+00
25 45 1.41764660602882553e+00
26 45 1.39410396741404186e+00
27 45 1.36958468623905683e+00
28 45 1.34410645027101983e+00
29 45 1.31768902252413689e+00
30 45 1.29035419598684942e+00
31 45 1.26212573765536407e+00
32 45 1.23302932214183691e+00
33 45 1.20309245522664510e+00
34 45 1.17234438782191308e+00
35 45 1.14081602090660317e+00
36 45 1.10853980208032454e+00
37 45 1.07554961446235287e+00
38 45 1.04188065873300273e+00
39 45 1.00756932917529052e+00
40 45 9.72653084625050068e-01
41 45 9.37170315276507848e-01
42 45 9.01160206317525025e-01
43 45 8.64662599383793529e-01
44 45 8.27717852824496614e-01
45 45 7.90366701763312474e-01
46 45 7.52650118918647637e-01
47 45 7.14609177116282135e-01
48 45 6.76284914386864999e-01
49 45 6.37718202490947794e-01
50 45 5.98949619656487298e-01
51 45 5.60019328249094284e-01
52 45 5.20966958025091853e-01
53 45 4.81831495542772992e-01
54 45 4.42651180229500008e-01
55 45 4.03463407522652584e-01
56 45 3.64304639422134258e-01
57 45 3.25210322712329969e-01
58 45 2.86214815033148828e-01
59 45 2.47351318904024092e-01
60 45 2.08651823732380115e-01
61 45 1.70147055769809041e-01
62 45 1.31866435915690361e-01
63 45 9.38380452097013901e-02
64 45 5.60885978019944192e-02
65 45 1.86434211430086885e-02
66 45 1.02851196022141032e-16
1 46 1.69531249999999956e+00
2 46 1.69531250000000133e+00
3 46 1.69447343079989765e+00
4 46 1.69277320617227667e+00
5 46 1.69019046918175797e+00
6 46 1.68670468824338582e+00
7 46 1.68229625456688892e+00
8 46 1.67694658045342693e+00
9 46 1.67063819786717227e+00
10 46 1.66335485666272653e+00
11 46 1.65508162181178298e+00
12 46 1.64580496893953732e+00
13 46 1.63551287745383234e+00
14 46 1.62419492052880554e+00
15 46 1.61184235119059394e+00
16 46 1.59844818374620079e+00
17 46 1.58400726979850881e+00
18 46 1.56851636810124084e+00
19 46 1.55197420752773430e+00
20 46 1.53438154245704483e+00
21 46 1.51574119992020573e+00
22 46 1.49605811789839271e+00
23 46 1.47533937422304740e+00
24 46 1.45359420559527597e+00
25 46 1.43083401631746576e+00
26 46 1.40707237641324201e+00
27 46 1.38232500890174581e+00
28 46 1.35660976608749428e+00
29 46 1.32994659482668687e+00
30 46 1.30235749083323871e+00
31 46 1.27386644219169276e+00
32 46 1.24449936234780711e+00
33 46 1.21428401294968347e+00
34 46 1.18324991701095428e+00
35 46 1.15142826296154821e+00
36 46 1.11885180023921116e+00
37 46 1.08555472715502588e+00
38 46 1.05157257183749575e+00
39 46 1.01694206712110713e+00
40 46 9.81701020295980720e-01
41 46 9.45888178674428759e-01
42 46 9.09543091957688010e-01
43 46 8.72705972401317309e-01
44 46 8.35417553781003575e-01
45 46 7.97718950151808492e-01
46 46 7.59651515373704678e-01
47 46 7.21256704345270894e-01
48 46 6.82575936846277598e-01
49 46 6.43650464839700898e-01
50 46 6.04521244025384985e-01
51 46 5.65228810372341628e-01
52 46 5.25813162285790447e-01
53 46 4.86313648989682545e-01
54 46 4.46768865626983758e-01
55 46 4.07216555499607502e-01
56 46 3.67693519788851730e-01
57 46 3.28235535016630720e-01
58 46 2.88877278428806006e-01
59 46 2.49652261405456877e-01
60 46 2.10592770929890621e-01
61 46 1.71729819079295631e-01
62 46 1.33093100435836331e-01
63 46 9.47109572581637249e-02
64 46 5.66103522001525014e-02
65 46 1.88168483164320270e-02
66 46 1.03807951333974900e-16
1 47 1.71093749999999956e+00
2 47 1.71093750000000133e+00
3 47 1.71009069744321462e+00
4 47 1.70837480254252805e+00
5 47 1.70576826152444694e+00
6 47 1.70225035357281795e+00
7 47 1.69780128917119200e+00
8 47 1.69240230930553226e+00
9 47 1.68603578494428907e+00
10 47 1.67868531617113881e+00
11 47 1.67033583030774424e+00
12 47 1.66097367833068499e+00
13 47 1.65058672885893687e+00
14 47 1.63916445896685903e+00
15 47 1.62669804106331828e+00
16 47 1.61318042507105042e+00
17 47 1.59860641514227386e+00
18 47 1.58297274015747358e+00
19 47 1.56627811727453370e+00
20 47 1.54852330782531267e+00
21 47 1.52971116489642878e+00
22 47 1.50984667198040556e+00
23 47 1.48893697214215370e+00
24 47 1.46699138721366573e+00
25 47 1.44402142660610600e+00
26 47 1.42004078541244216e+00
27 47 1.39506533156443457e+00
28 47 1.36911308190396896e+00
29 47 1.34220416712923685e+00
30 47 1.31436078567962800e+00
31 47 1.28560714672802168e+00
32 47 1.25596940255377754e+00
33 47 1.22547557067272206e+00
34 47 1.19415544619999525e+00
35 47 1.16204050501649347e+00
36 47 1.12916379839809777e+00
37 47 1.09555983984769889e+00
38 47 1.06126448494198877e+00
39 47 1.02631480506692374e+00
40 47 9.90748955966911482e-01
41 47 9.54606042072349892e-01
42 47 9.17925977597851106e-01
43 47 8.80749345418840979e-01
44 47 8.43117254737510535e-01
45 47 8.05071198540304289e-01
46 47 7.66652911828761829e-01
47 47 7.27904231574259653e-01
48 47 6.88866959305690307e-01
49 47 6.49582727188453890e-01
50 47 6.10092868394282450e-01
51 47 5.70438292495588972e-01
52 47 5.30659366546488931e-01
53 47 4.90795802436592155e-01
54 47 4.50886551024467508e-01
55 47 4.10969703476562420e-01
56 47 3.71082400155569259e-01
57 47 3.31260747320931470e-01
58 47 2.91539741824463183e-01
59 47 2.51953203906889689e-01
60 47 2.12533718127401128e-01
61 47 1.73312582388782194e-01
62 47 1.34319764955982274e-01
63 47 9.55838693066260736e-02
64 47 5.71321065983105905e-02
65 47 1.89902754898553655e-02
66 47 1.04764706645808769e-16
1 48 1.72656249999999933e+00
2 48 1.72656250000000111e+00
3 48 1.72570796408653160e+00
4 48 1.72397639891277921e+00
5 48 1.72134605386713591e+00
6 48 1.71779601890225009e+00
7 48 1.71330632377549508e+00
8 48 1.70785803815763759e+00
9 48 1.70143337202140588e+00
10 48 1.69401577567955108e+00
11 48 1.68559003880370506e+00
12 48 1.67614238772183288e+00
13 48 1.66566058026404118e+00
14 48 1.65413399740491251e+00
15 48 1.64155373093604262e+00
16 48 1.62791266639590027e+00
17 48 1.61320556048603891e+00
18 48 1.59742911221370609e+00
19 48 1.58058202702133288e+00
20 48 1.56266507319358050e+00
21 48 1.54368112987265205e+00
22 48 1.52363522606241841e+00
23 48 1.50253457006126023e+00
24 48 1.48038856883205550e+00
25 48 1.45720883689474601e+00
26 48 1.43300919441164276e+00
27 48 1.40780565422712356e+00
28 48 1.38161639772044342e+00
29 48 1.35446173943178705e+00
30 48 1.32636408052601729e+00
31 48 1.29734785126435059e+00
32 48 1.26743944275974818e+00
33 48 1.23666712839576065e+00
34 48 1.20506097538903623e+00
35 48 1.17265274707143852e+00
36 48 1.13947579655698461e+00
37 48 1.10556495254037190e+00
38 48 1.07095639804648179e+00
39 48 1.03568754301274035e+00
40 48 9.99796891637842244e-01
41 48 9.63323905470270914e-01
42 48 9.26308863238014202e-01
43 48 8.88792718436364537e-01
44 48 8.50816955694017607e-01
45 48 8.12423446928800197e-01
46 48 7.73654308283818981e-01
47 48 7.34551758803248300e-01
48 48 6.95157981765102906e-01
49 48 6.55514989537206882e-01
50 48 6.15664492763179916e-01
51 48 5.75647774618836316e-01
52 48 5.35505570807187414e-01
53 48 4.95277955883501708e-01
54 48 4.55004236421951203e-01
55 48 4.14722851453517338e-01
56 48 3.74471280522286731e-01
57 48 3.34285959625232221e-01
58 48 2.94202205220120361e-01
59 48 2.54254146408322446e-01
60 48 2.14474665324911606e-01
61 48 1.74895345698268811e-01
62 48 1.35546429476128244e-01
63 48 9.64567813550884084e-02
64 48 5.76538609964686796e-02
65 48 1.91637026632787005e-02
66 48 1.05721461957642637e-16
1 49 1.74218749999999933e+00
2 49 1.74218750000000089e+00
3 49 1.74132523072984879e+00
4 49 1.73957799528303059e+00
5 49 1.73692384620982465e+00
6 49 1.73334168423168222e+00
7 49 1.72881135837979816e+00
8 49 1.72331376700974270e+00
9 49 1.71683095909852246e+00
10 49 1.70934623518796314e+00
11 49 1.70084424729966632e+00
12 49 1.69131109711298078e+00
13 49 1.68073443166914571e+00
14 49 1.66910353584296600e+00
15 49 1.65640942080876674e+00
16 49 1.64264490772075011e+00
17 49 1.62780470582980397e+00
18 49 1.61188548426993883e+00
19 49 1.59488593676813228e+00
20 49 1.57680683856184833e+00
21 49 1.55765109484887510e+00
22 49 1.53742378014443104e+00
23 49 1.51613216798036654e+00
24 49 1.49378575045044526e+00
25 49 1.47039624718338624e+00
26 49 1.44597760341084314e+00
27 49 1.42054597688981254e+00
28 49 1.39411971353691810e+00
29 49 1.36671931173433725e+00
30 49 1.33836737537240680e+00
31 49 1.30908855580067951e+00
32 49 1.27890948296571882e+00
33 49 1.24785868611879924e+00
34 49 1.21596650457807720e+00
35 49 1.18326498912638356e+00
36 49 1.14978779471587123e+00
37 49 1.11557006523304514e+00
38 49 1.08064831115097482e+00
39 49 1.04506028095855696e+00
40 49 1.00884482730877290e+00
41 49 9.72041768868191935e-01
42 49 9.34691748878177187e-01
43 49 8.96836091453888207e-01
44 49 8.58516656650524568e-01
45 49 8.19775695317296105e-01
46 49 7.80655704738876133e-01
47 49 7.41199286032237059e-01
48 49 7.01449004224515504e-01
49 49 6.61447251885959764e-01
50 49 6.21236117132077603e-01
51 49 5.80857256742083661e-01
52 49 5.40351775067885898e-01
53 49 4.99760109330411317e-01
54 49 4.59121921819434953e-01
55 49 4.18475999430472256e-01
56 49 3.77860160889004260e-01
57 49 3.37311171929532971e-01
58 49 2.96864668615777594e-01
59 49 2.56555088909755258e-01
60 49 2.16415612522422113e-01
61 49 1.76478109007755402e-01
62 49 1.36773093996274187e-01
63 49 9.73296934035507433e-02
64 49 5.81756153946267757e-02
65 49 1.93371298367020356e-02
66 49 1.06678217269476505e-16
1 50 1.75781249999999956e+00
2 50 1.75781250000000089e+00
3 50 1.75694249737316577e+00
4 50 1.75517959165328197e+00
5 50 1.75250163855251362e+00
6 50 1.74888734956111436e+00
7 50 1.74431639298410146e+00
8 50 1.73876949586184804e+00
9 50 1.73222854617563904e+00
10 50 1.72467669469637541e+00
11 50 1.71609845579562759e+00
12 50 1.70647980650412867e+00
13 50 1.69580828307425024e+00
14 50 1.68407307428101971e+00
15 50 1.67126511068149131e+00
16 50 1.65737714904559996e+00
17 50 1.64240385117356880e+00
18 50 1.62634185632617134e+00
19 50 1.60918984651493169e+00
20 50 1.59094860393011595e+00
21 50 1.57162105982509814e+00
22 50 1.55121233422644367e+00
23 50 1.52972976589947285e+00
24 50 1.50718293206883480e+00
25 50 1.48358365747202647e+00
26 50 1.45894601241004351e+00
27 50 1.43328629955250153e+00
28 50 1.40662302935339278e+00
29 50 1.37897688403688745e+00
30 50 1.35037067021879587e+00
31 50 1.32082926033700843e+00
32 50 1.29037952317168947e+00
33 50 1.25905024384183784e+00
34 50 1.22687203376711818e+00
35 50 1.19387723118132882e+00
36 50 1.16009979287475806e+00
37 50 1.12557517792571815e+00
38 50 1.09034022425546784e+00
39 50 1.05443301890437358e+00
40 50 1.01789276297970366e+00
41 50 9.80759632266112957e-01
42 50 9.43074634518340060e-01
43 50 9.04879464471411765e-01
44 50 8.66216357607031529e-01
45 50 8.27127943705792013e-01
46 50 7.87657101193933284e-01
47 50 7.47846813261225818e-01
48 50 7.07740026683928103e-01
49 50 6.67379514234712867e-01
50 50 6.26807741500975069e-01
51 50 5.86066738865331005e-01
52 50 5.45197979328584492e-01
53 50 5.04242262777320871e-01
54 50 4.63239607216918703e-01
55 50 4.22229147407427174e-01
56 50 3.81249041255721788e-01
57 50 3.40336384233833722e-01
58 50 2.99527132011434771e-01
59 50 2.58856031411188015e-01
60 50 2.18356559719932619e-01
61 50 1.78060872317241992e-01
62 50 1.37999758516420157e-01
63 50 9.82026054520130920e-02
64 50 5.86973697927848648e-02
65 50 1.95105570101253741e-02
66 50 1.07634972581310374e-16
1 51 1.77343749999999978e+00
2 51 1.77343750000000089e+00
3 51 1.77255976401648296e+00
4 51 1.77078118802353357e+00
5 51 1.76807943089520259e+00
6 51 1.76443301489054627e+00
7 51 1.75982142758840476e+00
8 51 1.75422522471395337e+00
9 51 1.74762613325275562e+00
10 51 1.74000715420478769e+00
11 51 1.73135266429158863e+00
12 51 1.72164851589527657e+00
13 51 1.71088213447935478e+00
14 51 1.69904261271907320e+00
15 51 1.68612080055421565e+00
16 51 1.67210939037045003e+00
17 51 1.65700299651733385e+00
18 51 1.64079822838240408e+00
19 51 1.62349375626173109e+00
20 51 1.60509036929838378e+00
21 51 1.58559102480132119e+00
22 51 1.56500088830845629e+00
23 51 1.54332736381857938e+00
24 51 1.52058011368722457e+00
25 51 1.49677106776066671e+00
26 51 1.47191442140924389e+00
27 51 1.44602662221519029e+00
28 51 1.41912634516986746e+00
29 51 1.39123445633943743e+00
30 51 1.36237396506518516e+00
31 51 1.33256996487333734e+00
32 51 1.30184956337765989e+00
33 51 1.27024180156487621e+00
34 51 1.23777756295615893e+00
35 51 1.20448947323627409e+00
36 51 1.17041179103364490e+00
37 51 1.13558029061839116e+00
38 51 1.10003213735996064e+00
39 51 1.06380575685019019e+00
40 51 1.02694069865063420e+00
41 51 9.89477495664033868e-01
42 51 9.51457520158503156e-01
43 51 9.12922837488935435e-01
44 51 8.73916058563538489e-01
45 51 8.34480192094288031e-01
46 51 7.94658497648990436e-01
47 51 7.54494340490214577e-01
48 51 7.14031049143340812e-01
49 51 6.73311776583465860e-01
50 51 6.32379365869872645e-01
51 51 5.91276220988578349e-01
52 51 5.50044183589282976e-01
53 51 5.08724416224230369e-01
54 51 4.67357292614402453e-01
55 51 4.25982295384382037e-01
56 51 3.84637921622439372e-01
57 51 3.43361596538134473e-01
58 51 3.02189595407092004e-01
59 51 2.61156973912620771e-01
60 51 2.20297506917443126e-01
61 51 1.79643635626728609e-01
62 51 1.39226423036566127e-01
63 51 9.90755175004754407e-02
64 51 5.92191241909429539e-02
65 51 1.96839841835487125e-02
66 51 1.08591727893144242e-16
1 52 1.78906249999999978e+00
2 52 1.78906250000000089e+00
3 52 1.78817703065980016e+00
4 52 1.78638278439378495e+00
5 52 1.78365722323789133e+00
6 52 1.77997868021997840e+00
7 52 1.77532646219270807e+00
8 52 1.76968095356605870e+00
9 52 1.76302372032987242e+00
10 52 1.75533761371319974e+00
11 52 1.74660687278754989e+00
12 52 1.73681722528642446e+00
13 52 1.72595598588445909e+00
14 52 1.71401215115712668e+00
15 52 1.70097649042693977e+00
16 52 1.68684163169529966e+00
17 52 1.67160214186109890e+00
18 52 1.65525460043863681e+00
19 52 1.63779766600853049e+00
20 52 1.61923213466665139e+00
21 52 1.59956098977754446e+00
22 52 1.57878944239046937e+00
23 52 1.55692496173768569e+00
24 52 1.53397729530561411e+00
25 52 1.50995847804930694e+00
26 52 1.48488283040844449e+00
27 52 1.45876694487787906e+00
28 52 1.43162966098634215e+00
29 52 1.40349202864198763e+00
30 52 1.37437725991157444e+00
31 52 1.34431066940966626e+00
32 52 1.31331960358363053e+00
33 52 1.28143335928791480e+00
34 52 1.24868309214519990e+00
35 52 1.21510171529121935e+00
36 52 1.18072378919253174e+00
37 52 1.14558540331106418e+00
38 52 1.10972405046445366e+00
39 52 1.07317849479600702e+00
40 52 1.03598863432156496e+00
41 52 9.98195359061954779e-01
42 52 9.59840405798666252e-01
43 52 9.20966210506458993e-01
44 52 8.81615759520045450e-01
45 52 8.41832440482783939e-01
46 52 8.01659894104047588e-01
47 52 7.61141867719203336e-01
48 52 7.20322071602753522e-01
49 52 6.79244038932218963e-01
50 52 6.37950990238770221e-01
51 52 5.96485703111825694e-01
52 52 5.54890387849981570e-01
53 52 5.13206569671139867e-01
54 52 4.71474978011886203e-01
55 52 4.29735443361336955e-01
56 52 3.88026801989156900e-01
57 52 3.46386808842435223e-01
58 52 3.04852058802749237e-01
59 52 2.63457916414053583e-01
60 52 2.22238454114953632e-01
61 52 1.81226398936215199e-01
62 52 1.40453087556712042e-01
63 52 9.99484295489377894e-02
64 52 5.97408785891010430e-02
65 52 1.98574113569720510e-02
66 52 1.09548483204978110e-16
1 53 1.80468749999999978e+00
2 53 1.80468750000000089e+00
3 53 1.80379429730311713e+00
4 53 1.80198438076403633e+00
5 53 1.79923501558058030e+00
6 53 1.79552434554941054e+00
7 53 1.79083149679701137e+00
8 53 1.78513668241816426e+00
9 53 1.77842130740698945e+00
10 53 1.77066807322161202e+00
11 53 1.76186108128351093e+00
12 53 1.75198593467757213e+00
13 53 1.74102983728956340e+00
14 53 1.72898168959518017e+00
15 53 1.71583218029966433e+00
16 53 1.70157387302014929e+00
17 53 1.68620128720486395e+00
18 53 1.66971097249486955e+00
19 53 1.65210157575532990e+00
20 53 1.63337390003491900e+00
21 53 1.61353095475376751e+00
22 53 1.59257799647248244e+00
23 53 1.57052255965679199e+00
24 53 1.54737447692400387e+00
25 53 1.52314588833794695e+00
26 53 1.49785123940764486e+00
27 53 1.47150726754056804e+00
28 53 1.44413297680281660e+00
29 53 1.41574960094453783e+00
30 53 1.38638055475796351e+00
31 53 1.35605137394599518e+00
32 53 1.32478964378960096e+00
33 53 1.29262491701095339e+00
34 53 1.25958862133424088e+00
35 53 1.22571395734616440e+00
36 53 1.19103578735141857e+00
37 53 1.15559051600373719e+00
38 53 1.11941596356894668e+00
39 53 1.08255123274182363e+00
40 53 1.04503656999249572e+00
41 53 1.00691322245987580e+00
42 53 9.68223291438829237e-01
43 53 9.29009583523982663e-01
44 53 8.89315460476552411e-01
45 53 8.49184688871279958e-01
46 53 8.08661290559104851e-01
47 53 7.67789394948192094e-01
48 53 7.26613094062166232e-01
49 53 6.85176301280971956e-01
50 53 6.43522614607667798e-01
51 53 6.01695185235073149e-01
52 53 5.59736592110680165e-01
53 53 5.17688723118049365e-01
54 53 4.75592663409369898e-01
55 53 4.33488591338291873e-01
56 53 3.91415682355874484e-01
57 53 3.49412021146736029e-01
58 53 3.07514522198406526e-01
59 53 2.65758858915486396e-01
60 53 2.24179401312464138e-01
61 53 1.82809162245701790e-01
62 53 1.41679752076858012e-01
63 53 1.00821341597400124e-01
64 53 6.02626329872591252e-02
65 53 2.00308385303953861e-02
66 53 1.10505238516811979e-16
1 54 1.82031249999999978e+00
2 54 1.82031250000000089e+00
3 54 1.81941156394643411e+00
4 54 1.81758597713428793e+00
5 54 1.81481280792326949e+00
6 54 1.81107001087884290e+00
7 54 1.80633653140131445e+00
8 54 1.80059241127026937e+00
9 54 1.79381889448410647e+00
10 54 1.78599853273002429e+00
11 54 1.77711528977947197e+00
12 54 1.76715464406872003e+00
13 54 1.75610368869466771e+00
14 54 1.74395122803323366e+00
15 54 1.73068787017238890e+00
16 54 1.71630611434499913e+00
17 54 1.70080043254862923e+00
18 54 1.68416734455110206e+00
19 54 1.66640548550212930e+00
20 54 1.64751566540318661e+00
21 54 1.62750091972999056e+00
22 54 1.60636655055449529e+00
23 54 1.58412015757589830e+00
24 54 1.56077165854239364e+00
25 54 1.53633329862658718e+00
26 54 1.51081964840684524e+00
27 54 1.48424759020325703e+00
28 54 1.45663629261929128e+00
29 54 1.42800717324708781e+00
30 54 1.39838384960435258e+00
31 54 1.36779207848232387e+00
32 54 1.33625968399557160e+00
33 54 1.30381647473399176e+00
34 54 1.27049415052328185e+00
35 54 1.23632619940110966e+00
36 54 1.20134778551030541e+00
37 54 1.16559562869641020e+00
38 54 1.12910787667343970e+00
39 54 1.09192397068764024e+00
40 54 1.05408450566342626e+00
41 54 1.01563108585779704e+00
42 54 9.76606177078992332e-01
43 54 9.37052956541506332e-01
44 54 8.97015161433059260e-01
45 54 8.56536937259775866e-01
46 54 8.15662687014162002e-01
47 54 7.74436922177180742e-01
48 54 7.32904116521578941e-01
49 54 6.91108563629724948e-01
50 54 6.49094238976565374e-01
51 54 6.06904667358320604e-01
52 54 5.64582796371378759e-01
53 54 5.22170876564958975e-01
54 54 4.79710348806853593e-01
55 54 4.37241739315246791e-01
56 54 3.94804562722592012e-01
57 54 3.52437233451036724e-01
58 54 3.10176985594063759e-01
59 54 2.68059801416919152e-01
60 54 2.26120348509974645e-01
61 54 1.84391925555188380e-01
62 54 1.42906416597003982e-01
63 54 1.01694253645862459e-01
64 54 6.07843873854172073e-02
65 54 2.02042657038187246e-02
66 54 1.11461993828645859e-16
1 55 1.83593749999999978e+00
2 55 1.83593750000000089e+00
3 55 1.83502883058975108e+00
4 55 1.83318757350453931e+00
5 55 1.83039060026595846e+00
6 55 1.82661567620827503e+00
7 55 1.82184156600561775e+00
8 55 1.81604814012237470e+00
9 55 1.80921648156122306e+00
10 55 1.80132899223843657e+00
11 55 1.79236949827543324e+00
12 55 1.78232335345986792e+00
13 55 1.77117754009977224e+00
14 55 1.75892076647128737e+00
15 55 1.74554356004511324e+00
16 55 1.73103835566984898e+00
17 55 1.71539957789239428e+00
18 55 1.69862371660733480e+00
19 55 1.68070939524892871e+00
20 55 1.66165743077145422e+00
21 55 1.64147088470621383e+00
22 55 1.62015510463650814e+00
23 55 1.59771775549500483e+00
24 55 1.57416884016078340e+00
25 55 1.54952070891522742e+00
26 55 1.52378805740604539e+00
27 55 1.49698791286594579e+00
28 55 1.46913960843576596e+00
29 55 1.44026474554963779e+00
30 55 1.41038714445074209e+00
31 55 1.37953278301865301e+00
32 55 1.34772972420154225e+00
33 55 1.31500803245703035e+00
34 55 1.28139967971232283e+00
35 55 1.24693844145605470e+00
36 55 1.21165978366919203e+00
37 55 1.17560074138908344e+00
38 55 1.13879978977793272e+00
39 55 1.10129670863345708e+00
40 55 1.06313244133435703e+00
41 55 1.02434894925571807e+00
42 55 9.84989062719155317e-01
43 55 9.45096329559030002e-01
44 55 9.04714862389566221e-01
45 55 8.63889185648271885e-01
46 55 8.22664083469219154e-01
47 55 7.81084449406169501e-01
48 55 7.39195138980991651e-01
49 55 6.97040825978477940e-01
50 55 6.54665863345463062e-01
51 55 6.12114149481568059e-01
52 55 5.69429000632077242e-01
53 55 5.26653030011868473e-01
54 55 4.83828034204337343e-01
55 55 4.40994887292201709e-01
56 55 3.98193443089309540e-01
57 55 3.55462445755337475e-01
58 55 3.12839448989720881e-01
59 55 2.70360743918351909e-01
60 55 2.28061295707485151e-01
61 55 1.85974688864674970e-01
62 55 1.44133081117149925e-01
63 55 1.02567165694324808e-01
64 55 6.13061417835752895e-02
65 55 2.03776928772420630e-02
66 55 1.12418749140479728e-16
1 56 1.85156249999999978e+00
2 56 1.85156250000000067e+00
3 56 1.85064609723306828e+00
4 56 1.84878916987479092e+00
5 56 1.84596839260864742e+00
6 56 1.84216134153770716e+00
7 56 1.83734660060992083e+00
8 56 1.83150386897448003e+00
9 56 1.82461406863833986e+00
10 56 1.81665945174684906e+00
11 56 1.80762370677139450e+00
12 56 1.79749206285101581e+00
13 56 1.78625139150487677e+00
14 56 1.77389030490934085e+00
15 56 1.76039924991783758e+00
16 56 1.74577059699469883e+00
17 56 1.72999872323615933e+00
18 56 1.71308008866356731e+00
19 56 1.69501330499572833e+00
20 56 1.67579919613972206e+00
21 56 1.65544084968243710e+00
22 56 1.63394365871852121e+00
23 56 1.61131535341411136e+00
24 56 1.58756602177917294e+00
25 56 1.56270811920386765e+00
26 56 1.53675646640524599e+00
27 56 1.50972823552863478e+00
28 56 1.48164292425224065e+00
29 56 1.45252231785218799e+00
30 56 1.42239043929713116e+00
31 56 1.39127348755498192e+00
32 56 1.35919976440751267e+00
33 56 1.32619959018006894e+00
34 56 1.29230520890136380e+00
35 56 1.25755068351099997e+00
36 56 1.22197178182807864e+00
37 56 1.18560585408175667e+00
38 56 1.14849170288242575e+00
39 56 1.11066944657927369e+00
40 56 1.07218037700528779e+00
41 56 1.03306681265363909e+00
42 56 9.93371948359318302e-01
43 56 9.53139702576553560e-01
44 56 9.12414563346073182e-01
45 56 8.71241434036767792e-01
46 56 8.29665479924276306e-01
47 56 7.87731976635158149e-01
48 56 7.45486161440404360e-01
49 56 7.02973088327230933e-01
50 56 6.60237487714360638e-01
51 56 6.17323631604815515e-01
52 56 5.74275204892775726e-01
53 56 5.31135183458777971e-01
54 56 4.87945719601821093e-01
55 56 4.44748035269156627e-01
56 56 4.01582323456027068e-01
57 56 3.58487658059638226e-01
58 56 3.15501912385378058e-01
59 56 2.72661686419784721e-01
60 56 2.30002242904995657e-01
61 56 1.87557452174161587e-01
62 56 1.45359745637295895e-01
63 56 1.03440077742787143e-01
64 56 6.18278961817333716e-02
65 56 2.05511200506654015e-02
66 56 1.13375504452313596e-16
1 57 1.86718749999999978e+00
2 57 1.86718750000000044e+00
3 57 1.86626336387638503e+00
4 57 1.86439076624504230e+00
5 57 1.86154618495133617e+00
6 57 1.85770700686713930e+00
7 57 1.85285163521422391e+00
8 57 1.84695959782658536e+00
9 57 1.84001165571545644e+00
10 57 1.83198991125526112e+00
11 57 1.82287791526735576e+00
12 57 1.81266077224216371e+00
13 57 1.80132524290998131e+00
14 57 1.78885984334739434e+00
15 57 1.77525493979056170e+00
16 57 1.76050283831954868e+00
17 57 1.74459786857992438e+00
18 57 1.72753646071979983e+00
19 57 1.70931721474252774e+00
20 57 1.68994096150798989e+00
21 57 1.66941081465866015e+00
22 57 1.64773221280053406e+00
23 57 1.62491295133321767e+00
24 57 1.60096320339756271e+00
25 57 1.57589552949250788e+00
26 57 1.54972487540444637e+00
27 57 1.52246855819132376e+00
28 57 1.49414624006871555e+00
29 57 1.46477989015473797e+00
30 57 1.43439373414352067e+00
31 57 1.40301419209131062e+00
32 57 1.37066980461348331e+00
33 57 1.33739114790310754e+00
34 57 1.30321073809040477e+00
35 57 1.26816292556594501e+00
36 57 1.23228377998696548e+00
37 57 1.19561096677442968e+00
38 57 1.15818361598691877e+00
39 57 1.12004218452509052e+00
40 57 1.08122831267621855e+00
41 57 1.04178467605156011e+00
42 57 1.00175483399948129e+00
43 57 9.61183075594077341e-01
44 57 9.20114264302580032e-01
45 57 8.78593682425263700e-01
46 57 8.36666876379333568e-01
47 57 7.94379503864146796e-01
48 57 7.51777183899816959e-01
49 57 7.08905350675983814e-01
50 57 6.65809112083258214e-01
51 57 6.22533113728062970e-01
52 57 5.79121409153474209e-01
53 57 5.35617336905687580e-01
54 57 4.92063404999304843e-01
55 57 4.48501183246111601e-01
56 57 4.04971203822744596e-01
57 57 3.61512870363938921e-01
58 57 3.18164375781035236e-01
59 57 2.74962628921217478e-01
60 57 2.31943190102506164e-01
61 57 1.89140215483648177e-01
62 57 1.46586410157441865e-01
63 57 1.04312989791249464e-01
64 57 6.23496505798914538e-02
65 57 2.07245472240887366e-02
66 57 1.14332259764147464e-16
1 58 1.88281249999999978e+00
2 58 1.88281250000000022e+00
3 58 1.88188063051970200e+00
4 58 1.87999236261529368e+00
5 58 1.87712397729402491e+00
6 58 1.87325267219657121e+00
7 58 1.86835666981852699e+00
8 58 1.86241532667869070e+00
9 58 1.85540924279257324e+00
10 58 1.84732037076367317e+00
11 58 1.83813212376331703e+00
12 58 1.82782948163331138e+00
13 58 1.81639909431508562e+00
14 58 1.80382938178544761e+00
15 58 1.79011062966328605e+00
16 58 1.77523507964439831e+00
17 58 1.75919701392368966e+00
18 58 1.74199283277603256e+00
19 58 1.72362112448932714e+00
20 58 1.70408272687625750e+00
21 58 1.68338077963488320e+00
22 58 1.66152076688254668e+00
23 58 1.63851054925232398e+00
24 58 1.61436038501595247e+00
25 58 1.58908293978114834e+00
26 58 1.56269328440364674e+00
27 58 1.53520888085401275e+00
28 58 1.50664955588519023e+00
29 58 1.47703746245728795e+00
30 58 1.44639702898990974e+00
31 58 1.41475489662763954e+00
32 58 1.38213984481945396e+00
33 58 1.34858270562614613e+00
34 58 1.31411626727944597e+00
35 58 1.27877516762089005e+00
36 58 1.24259577814585209e+00
37 58 1.20561607946710270e+00
38 58 1.16787552909141179e+00
39 58 1.12941492247090713e+00
40 58 1.09027624834714909e+00
41 58 1.05050253944948091e+00
42 58 1.01013771963964438e+00
43 58 9.69226448611601121e-01
44 58 9.27813965259086992e-01
45 58 8.85945930813759608e-01
46 58 8.43668272834390831e-01
47 58 8.01027031093135444e-01
48 58 7.58068206359229668e-01
49 58 7.14837613024736807e-01
50 58 6.71380736452155791e-01
51 58 6.27742595851310314e-01
52 58 5.83967613414172804e-01
53 58 5.40099490352597189e-01
54 58 4.96181090396788593e-01
55 58 4.52254331223066519e-01
56 58 4.08360084189462125e-01
57 58 3.64538082668239671e-01
58 58 3.20826839176692413e-01
59 58 2.77263571422650235e-01
60 58 2.33884137300016670e-01
61 58 1.90722978793134768e-01
62 58 1.47813074677587808e-01
63 58 1.05185901839711798e-01
64 58 6.28714049780495360e-02
65 58 2.08979743975120716e-02
66 58 1.15289015075981333e-16
1 59 1.89843749999999978e+00
2 59 1.89843750000000022e+00
3 59 1.89749789716301920e+00
4 59 1.89559395898554484e+00
5 59 1.89270176963671388e+00
6 59 1.88879833752600312e+00
7 59 1.88386170442283007e+00
8 59 1.87787105553079581e+00
9 59 1.87080682986968982e+00
10 59 1.86265083027208544e+00
11 59 1.85338633225927807e+00
12 59 1.84299819102445928e+00
13 59 1.83147294572019015e+00
14 59 1.81879892022350087e+00
15 59 1.80496631953601039e+00
16 59 1.78996732096924793e+00
17 59 1.77379615926745449e+00
18 59 1.75644920483226508e+00
19 59 1.73792503423612654e+00
20 59 1.71822449224452511e+00
21 59 1.69735074461110602e+00
22 59 1.67530932096455953e+00
23 59 1.65210814717143029e+00
24 59 1.62775756663434223e+00
25 59 1.60227035006978857e+00
26 59 1.57566169340284690e+00
27 59 1.54794920351670151e+00
28 59 1.51915287170166491e+00
29 59 1.48929503475983793e+00
30 59 1.45840032383629903e+00
31 59 1.42649560116396823e+00
32 59 1.39360988502542460e+00
33 59 1.35977426334918472e+00
34 59 1.32502179646848717e+00
35 59 1.28938740967583509e+00
36 59 1.25290777630473893e+00
37 59 1.21562119215977571e+00
38 59 1.17756744219590481e+00
39 59 1.13878766041672397e+00
40 59 1.09932418401807985e+00
41 59 1.05922040284740193e+00
42 59 1.01852060527980726e+00
43 59 9.77269821629124791e-01
44 59 9.35513666215593842e-01
45 59 8.93298179202255627e-01
46 59 8.50669669289448094e-01
47 59 8.07674558322124092e-01
48 59 7.64359228818642378e-01
49 59 7.20769875373489799e-01
50 59 6.76952360821053256e-01
51 59 6.32952077974557770e-01
52 59 5.88813817674871398e-01
53 59 5.44581643799506687e-01
54 59 5.00298775794272288e-01
55 59 4.56007479200021437e-01
56 59 4.11748964556179653e-01
57 59 3.67563294972540366e-01
58 59 3.23489302572349591e-01
59 59 2.79564513924083047e-01
60 59 2.35825084497527204e-01
61 59 1.92305742102621358e-01
62 59 1.49039739197733750e-01
63 59 1.06058813888174133e-01
64 59 6.33931593762076251e-02
65 59 2.10714015709354066e-02
66 59 1.16245770387815176e-16
1 60 1.91406249999999978e+00
2 60 1.91406250000000044e+00
3 60 1.91311516380633617e+00
4 60 1.91119555535579622e+00
5 60 1.90827956197940285e+00
6 60 1.90434400285543548e+00
7 60 1.89936673902713338e+00
8 60 1.89332678438290114e+00
9 60 1.88620441694680685e+00
10 60 1.87798128978049794e+00
11 60 1.86864054075523911e+00
12 60 1.85816690041560717e+00
13 60 1.84654679712529468e+00
14 60 1.83376845866155436e+00
15 60 1.81982200940873473e+00
16 60 1.80469956229409756e+00
17 60 1.78839530461121976e+00
18 60 1.77090557688849759e+00
19 60 1.75222894398292572e+00
20 60 1.73236625761279273e+00
21 60 1.71132070958732907e+00
22 60 1.68909787504657238e+00
23 60 1.66570574509053704e+00
24 60 1.64115474825273178e+00
25 60 1.61545776035842881e+00
26 60 1.58863010240204749e+00
27 60 1.56068952617939050e+00
28 60 1.53165618751813959e+00
29 60 1.50155260706238813e+00
30 60 1.47040361868268854e+00
31 60 1.43823630570029715e+00
32 60 1.40507992523139524e+00
33 60 1.37096582107222331e+00
34 60 1.33592732565752836e+00
35 60 1.29999965173078058e+00
36 60 1.26321977446362577e+00
37 60 1.22562630485244872e+00
38 60 1.18725935530039783e+00
39 60 1.14816039836254058e+00
40 60 1.10837211968901039e+00
41 60 1.06793826624532318e+00
42 60 1.02690349091997035e+00
43 60 9.85313194646648460e-01
44 60 9.43213367172100803e-01
45 60 9.00650427590751534e-01
46 60 8.57671065744505245e-01
47 60 8.14322085551112740e-01
48 60 7.70650251278055087e-01
49 60 7.26702137722242791e-01
50 60 6.82523985189950722e-01
51 60 6.38161560097805225e-01
52 60 5.93660021935569882e-01
53 60 5.49063797246416185e-01
54 60 5.04416461191755983e-01
55 60 4.59760627176976300e-01
56 60 4.15137844922897181e-01
57 60 3.70588507276841117e-01
58 60 3.26151765968006824e-01
59 60 2.81865456425515859e-01
60 60 2.37766031695037738e-01
61 60 1.93888505412107948e-01
62 60 1.50266403717879721e-01
63 60 1.06931725936636482e-01
64 60 6.39149137743657142e-02
65 60 2.12448287443587416e-02
66 60 1.17202525699649045e-16
1 61 1.92968749999999978e+00
2 61 1.92968750000000044e+00
3 61 1.92873243044965315e+00
4 61 1.92679715172604782e+00
5 61 1.92385735432209182e+00
6 61 1.91988966818486761e+00
7 61 1.91487177363143646e+00
8 61 1.90878251323500669e+00
9 61 1.90160200402392365e+00
10 61 1.89331174928891000e+00
11 61 1.88389474925120037e+00
12 61 1.87333560980675484e+00
13 61 1.86162064853039921e+00
14 61 1.84873799709960784e+00
15 61 1.83467769928145907e+00
16 61 1.81943180361894741e+00
17 61 1.80299444995498459e+00
18 61 1.78536194894473033e+00
19 61 1.76653285372972491e+00
20 61 1.74650802298106056e+00
21 61 1.72529067456355212e+00
22 61 1.70288642912858523e+00
23 61 1.67930334300964335e+00
24 61 1.65455192987112154e+00
25 61 1.62864517064706904e+00
26 61 1.60159851140124787e+00
27 61 1.57342984884207948e+00
28 61 1.54415950333461405e+00
29 61 1.51381017936493834e+00
30 61 1.48240691352907783e+00
31 61 1.44997701023662628e+00
32 61 1.41654996543736589e+00
33 61 1.38215737879526213e+00
34 61 1.34683285484656956e+00
35 61 1.31061189378572562e+00
36 61 1.27353177262251238e+00
37 61 1.23563141754512174e+00
38 61 1.19695126840489086e+00
39 61 1.15753313630835719e+00
40 61 1.11742005535994116e+00
41 61 1.07665612964324420e+00
42 61 1.03528637656013345e+00
43 61 9.93356567664172130e-01
44 61 9.50913068128607653e-01
45 61 9.08002675979247442e-01
46 61 8.64672462199562508e-01
47 61 8.20969612780101499e-01
48 61 7.76941273737467797e-01
49 61 7.32634400070995784e-01
50 61 6.88095609558848298e-01
51 61 6.43371042221052458e-01
52 61 5.98506226196268476e-01
53 61 5.53545950693325683e-01
54 61 5.08534146589239677e-01
55 61 4.63513775153931218e-01
56 61 4.18526725289614709e-01
57 61 3.73613719581141868e-01
58 61 3.28814229363664057e-01
59 61 2.84166398926948727e-01
60 61 2.39706978892548245e-01
61 61 1.95471268721594510e-01
62 61 1.51493068238025691e-01
63 61 1.07804637985098817e-01
64 61 6.44366681725238172e-02
65 61 2.14182559177820801e-02
66 61 1.18159281011482913e-16
1 62 1.94531250000000000e+00
2 62 1.94531250000000044e+00
3 62 1.94434969709297012e+00
4 62 1.94239874809629898e+00
5 62 1.93943514666478078e+00
6 62 1.93543533351429975e+00
7 62 1.93037680823573932e+00
8 62 1.92423824208711203e+00
9 62 1.91699959110104046e+00
10 62 1.90864220879732227e+00
11 62 1.89914895774716164e+00
12 62 1.88850431919790251e+00
13 62 1.87669449993550352e+00
14 62 1.86370753553766133e+00
15 62 1.84953338915418342e+00
16 62 1.83416404494379726e+00
17 62 1.81759359529874942e+00
18 62 1.79981832100096284e+00
19 62 1.78083676347652409e+00
20 62 1.76064978834932817e+00
21 62 1.73926063953977517e+00
22 62 1.71667498321059808e+00
23 62 1.69290094092874965e+00
24 62 1.66794911148951108e+00
25 62 1.64183258093570950e+00
26 62 1.61456692040044825e+00
27 62 1.58617017150476824e+00
28 62 1.55666281915108873e+00
29 62 1.52606775166748854e+00
30 62 1.49441020837546734e+00
31 62 1.46171771477295520e+00
32 62 1.42802000564333653e+00
33 62 1.39334893651830072e+00
34 62 1.35773838403561076e+00
35 62 1.32122413584067089e+00
36 62 1.28384377078139900e+00
37 62 1.24563653023779453e+00
38 62 1.20664318150938388e+00
39 62 1.16690587425417402e+00
40 62 1.12646799103087192e+00
41 62 1.08537399304116522e+00
42 62 1.04366926220029654e+00
43 62 1.00139994068169580e+00
44 62 9.58612769085114613e-01
45 62 9.15354924367743239e-01
46 62 8.71673858654619771e-01
47 62 8.27617140009090146e-01
48 62 7.83232296196880395e-01
49 62 7.38566662419748776e-01
50 62 6.93667233927745874e-01
51 62 6.48580524344299802e-01
52 62 6.03352430456966959e-01
53 62 5.58028104140235293e-01
54 62 5.12651831986723372e-01
55 62 4.67266923130886136e-01
56 62 4.21915605656332238e-01
57 62 3.76638931885442618e-01
58 62 3.31476692759321234e-01
59 62 2.86467341428381483e-01
60 62 2.41647926090058751e-01
61 62 1.97054032031081072e-01
62 62 1.52719732758171661e-01
63 62 1.08677550033561165e-01
64 62 6.49584225706819063e-02
65 62 2.15916830912054186e-02
66 62 1.19116036323316782e-16
1 63 1.96093750000000000e+00
2 63 1.96093750000000022e+00
3 63 1.95996696373628709e+00
4 63 1.95800034446655036e+00
5 63 1.95501293900746997e+00
6 63 1.95098099884373188e+00
7 63 1.94588184284004262e+00
8 63 1.93969397093921714e+00
9 63 1.93239717817815726e+00
10 63 1.92397266830573432e+00
11 63 1.91440316624312268e+00
12 63 1.90367302858905041e+00
13 63 1.89176835134060783e+00
14 63 1.87867707397571460e+00
15 63 1.86438907902690798e+00
16 63 1.84889628626864710e+00
17 63 1.83219274064251447e+00
18 63 1.81427469305719558e+00
19 63 1.79514067322332349e+00
20 63 1.77479155371759578e+00
21 63 1.75323060451599844e+00
22 63 1.73046353729261093e+00
23 63 1.70649853884785596e+00
24 63 1.68134629310790062e+00
25 63 1.65501999122434973e+00
26 63 1.62753532939964862e+00
27 63 1.59891049416745723e+00
28 63 1.56916613496756319e+00
29 63 1.53832532397003852e+00
30 63 1.50641350322185663e+00
31 63 1.47345841930928412e+00
32 63 1.43949004584930718e+00
33 63 1.40454049424133931e+00
34 63 1.36864391322465173e+00
35 63 1.33183637789561615e+00
36 63 1.29415576894028561e+00
37 63 1.25564164293046754e+00
38 63 1.21633509461387690e+00
39 63 1.17627861219999086e+00
40 63 1.13551592670180246e+00
41 63 1.09409185643908624e+00
42 63 1.05205214784045964e+00
43 63 1.00944331369921936e+00
44 63 9.66312470041621463e-01
45 63 9.22707172756239036e-01
46 63 8.78675255109677145e-01
47 63 8.34264667238078794e-01
48 63 7.89523318656293216e-01
49 63 7.44498924768501769e-01
50 63 6.99238858296643451e-01
51 63 6.53790006467547258e-01
52 63 6.08198634717665443e-01
53 63 5.62510257587144791e-01
54 63 5.16769517384207067e-01
55 63 4.71020071107841054e-01
56 63 4.25304486023049766e-01
57 63 3.79664144189743369e-01
58 63 3.34139156154978412e-01
59 63 2.88768283929814185e-01
60 63 2.43588873287569257e-01
61 63 1.98636795340567662e-01
62 63 1.53946397278317632e-01
63 63 1.09550462082023500e-01
64 63 6.54801769688399954e-02
65 63 2.17651102646287536e-02
66 63 1.20072791635150650e-16
1 64 1.97656250000000000e+00
2 64 1.97656250000000000e+00
3 64 1.97558423037960429e+00
4 64 1.97360194083680152e+00
5 64 1.97059073135015894e+00
6 64 1.96652666417316424e+00
7 64 1.96138687744434592e+00
8 64 1.95514969979132269e+00
9 64 1.94779476525527406e+00
10 64 1.93930312781414638e+00
11 64 1.92965737473908372e+00
12 64 1.91884173798019853e+00
13 64 1.90684220274571237e+00
14 64 1.89364661241376786e+00
15 64 1.87924476889963232e+00
16 64 1.86362852759349695e+00
17 64 1.84679188598627975e+00
18 64 1.82873106511342809e+00
19 64 1.80944458297012312e+00
20 64 1.78893331908586339e+00
21 64 1.76720056949222171e+00
22 64 1.74425209137462378e+00
23 64 1.72009613676696249e+00
24 64 1.69474347472629039e+00
25 64 1.66820740151298996e+00
26 64 1.64050373839884922e+00
27 64 1.61165081683014644e+00
28 64 1.58166945078403787e+00
29 64 1.55058289627258827e+00
30 64 1.51841679806824592e+00
31 64 1.48519912384561326e+00
32 64 1.45096008605527804e+00
33 64 1.41573205196437790e+00
34 64 1.37954944241369271e+00
35 64 1.34244861995056119e+00
36 64 1.30446776709917223e+00
37 64 1.26564675562314055e+00
38 64 1.22602700771836992e+00
39 64 1.18565135014580769e+00
40 64 1.14456386237273322e+00
41 64 1.10280971983700726e+00
42 64 1.06043503348062274e+00
43 64 1.01748668671674292e+00
44 64 9.74012170998128424e-01
45 64 9.30059421144735055e-01
46 64 8.85676651564734407e-01
47 64 8.40912194467067553e-01
48 64 7.95814341115706037e-01
49 64 7.50431187117254761e-01
50 64 7.04810482665540916e-01
51 64 6.58999488590794713e-01
52 64 6.13044838978364037e-01
53 64 5.66992411034054289e-01
54 64 5.20887202781690872e-01
55 64 4.74773219084795972e-01
56 64 4.28693366389767294e-01
57 64 3.82689356494044119e-01
58 64 3.36801619550635589e-01
59 64 2.91069226431246941e-01
60 64 2.45529820485079792e-01
61 64 2.00219558650054280e-01
62 64 1.55173061798463574e-01
63 64 1.10423374130485835e-01
64 64 6.60019313669980984e-02
65 64 2.19385374380520887e-02
66 64 1.21029546946984518e-16
1 65 1.99218750000000000e+00
2 65 1.99218750000000000e+00
3 65 1.99120149702292126e+00
4 65 1.98920353720705290e+00
5 65 1.98616852369284791e+00
6 65 1.98207232950259638e+00
7 65 1.97689191204864900e+00
8 65 1.97060542864342803e+00
9 65 1.96319235233239087e+00
10 65 1.95463358732255865e+00
11 65 1.94491158323504476e+00
12 65 1.93401044737134620e+00
13 65 1.92191605415081668e+00
14 65 1.90861615085182157e+00
15 65 1.89410045877235667e+00
16 65 1.87836076891834658e+00
17 65 1.86139103133004480e+00
18 65 1.84318743716966060e+00
19 65 1.82374849271692252e+00
20 65 1.80307508445413123e+00
21 65 1.78117053446844498e+00
22 65 1.75804064545663685e+00
23 65 1.73369373468606924e+00
24 65 1.70814065634467993e+00
25 65 1.68139481180163020e+00
26 65 1.65347214739804937e+00
27 65 1.62439113949283520e+00
28 65 1.59417276660051233e+00
29 65 1.56284046857513848e+00
30 65 1.53042009291463543e+00
31 65 1.49693982838194239e+00
32 65 1.46243012626124846e+00
33 65 1.42692360968741672e+00
34 65 1.39045497160273368e+00
35 65 1.35306086200550624e+00
36 65 1.31477976525805906e+00
37 65 1.27565186831581356e+00
38 65 1.23571892082286316e+00
39 65 1.19502408809162430e+00
40 65 1.15361179804366398e+00
41 65 1.11152758323492828e+00
42 65 1.06881791912078583e+00
43 65 1.02553005973426647e+00
44 65 9.81711871954635384e-01
45 65 9.37411669533230851e-01
46 65 8.92678048019791670e-01
47 65 8.47559721696056312e-01
48 65 8.02105363575118746e-01
49 65 7.56363449466007864e-01
50 65 7.10382107034438492e-01
51 65 6.64208970714042168e-01
52 65 6.17891043239062632e-01
53 65 5.71474564480963676e-01
54 65 5.25004888179174567e-01
55 65 4.78526367061750890e-01
56 65 4.32082246756484822e-01
57 65 3.85714568798344870e-01
58 65 3.39464082946292767e-01
59 65 2.93370168932679698e-01
60 65 2.47470767682590298e-01
61 65 2.01802321959540898e-01
62 65 1.56399726318609572e-01
63 65 1.11296286178948184e-01
64 65 6.65236857651561875e-02
65 65 2.21119646114754237e-02
66 65 1.21986302258818387e-16
1 66 2.00000000000000000e+00
2 66 2.00000000000000000e+00
3 66 1.99901013034457975e+00
4 66 1.99700433539217848e+00
5 66 1.99395741986419250e+00
6 66 1.98984516216731233e+00
7 66 1.98464442935080077e+00
8 66 1.97833329306948058e+00
9 66 1.97089114587094949e+00
10 66 1.96229881707676479e+00
11 66 1.95253868748302550e+00
12 66 1.94159480206692003e+00
13 66 1.92945297985336905e+00
14 66 1.91610092007084809e+00
15 66 1.90152830370871895e+00
16 66 1.88572688958077150e+00
17 66 1.86869060400192732e+00
18 66 1.85041562319777686e+00
19 66 1.83090044759032233e+00
20 66 1.81014596713826492e+00
21 66 1.78815551695655639e+00
22 66 1.76493492249764317e+00
23 66 1.74049253364562273e+00
24 66 1.71483924715387470e+00
25 66 1.68798851694595053e+00
26 66 1.65995635189764945e+00
27 66 1.63076130082417947e+00
28 66 1.60042442450874978e+00
29 66 1.56896925472641358e+00
30 66 1.53642174033783019e+00
31 66 1.50281018065010685e+00
32 66 1.46816514636423379e+00
33 66 1.43251938854893601e+00
34 66 1.39590773619725428e+00
35 66 1.35836698303297876e+00
36 66 1.31993576433750248e+00
37 66 1.28065442466215007e+00
38 66 1.24056487737510968e+00
39 66 1.19971045706453272e+00
40 66 1.15813576587912936e+00
41 66 1.11588651493388880e+00
42 66 1.07300936194086738e+00
43 66 1.02955174624302837e+00
44 66 9.85561722432888865e-01
45 66 9.41087793727478750e-01
46 66 8.96178746247320301e-01
47 66 8.50883485310550580e-01
48 66 8.05250874804825045e-01
49 66 7.59329580640384472e-01
50 66 7.13167919218887225e-01
51 66 6.66813711775665841e-01
52 66 6.20314145369411984e-01
53 66 5.73715641204418314e-01
54 66 5.27063730877916359e-01
55 66 4.80402941050228349e-01
56 66 4.33776686939843559e-01
57 66 3.87227174950495301e-01
58 66 3.40795314644121383e-01
59 66 2.94520640183396076e-01
60 66 2.48441241281345537e-01
61 66 2.02593703614284193e-01
62 66 1.57013058578682529e-01
63 66 1.11732742203179358e-01
64 66 6.67845629642352390e-02
65 66 2.21986781981870947e-02
66 66 1.22464679914735321e-16
