%%MatrixMarket matrix coordinate  real general
66 66 4356
1 1 0.00000000000000000e+00
2 1 1.10993390990935022e-02
3 1 3.33922814821176056e-02
4 1 5.58663711015896861e-02
5 1 7.85065292893412925e-02
6 1 1.01296851807142138e-01
7 1 1.24220620640672838e-01
8 1 1.47260320091698121e-01
9 1 1.70397657322060775e-01
10 1 1.93613587475247761e-01
11 1 2.16888343469921890e-01
12 1 2.40201470525114286e-01
13 1 2.63531865438958290e-01
14 1 2.86857820602209324e-01
15 1 3.10157072684706159e-01
16 1 3.33406855887833087e-01
17 1 3.56583959609443779e-01
18 1 3.79664790320192402e-01
19 1 4.02625437402412689e-01
20 1 4.25441742655275457e-01
21 1 4.48089373123660262e-01
22 1 4.70543896863739486e-01
23 1 4.92780861216444488e-01
24 1 5.14775873121514183e-01
25 1 5.36504680970433800e-01
26 1 5.57943257466944509e-01
27 1 5.79067882939564904e-01
28 1 5.99855228532266582e-01
29 1 6.20282438687554949e-01
30 1 6.40327212331075146e-01
31 1 6.59967882168751463e-01
32 1 6.79183491516489601e-01
33 1 6.97953868098627361e-01
34 1 7.16259694274468006e-01
35 1 7.34082573182116893e-01
36 1 7.51405090325053426e-01
37 1 7.68210870168914983e-01
38 1 7.84484627363206788e-01
39 1 8.00212212254374777e-01
40 1 8.15380650412089736e-01
41 1 8.29978175948824615e-01
42 1 8.43994258472975156e-01
43 1 8.57419623576937351e-01
44 1 8.70246266822811254e-01
45 1 8.82467461248821472e-01
46 1 8.94077758478278195e-01
47 1 9.05072983569132350e-01
48 1 9.15450223795161055e-01
49 1 9.25207811598888430e-01
50 1 9.34345302000963662e-01
51 1 9.42863444790385641e-01
52 1 9.50764151854359363e-01
53 1 9.58050460035424045e-01
54 1 9.64726489926684416e-01
55 1 9.70797401033460017e-01
56 1 9.76269343741512752e-01
57 1 9.81149408538382395e-01
58 1 9.85445572935474745e-01
59 1 9.89166646534740290e-01
60 1 9.92322214675400383e-01
61 1 9.94922581083656166e-01
62 1 9.96978709932096252e-01
63 1 9.98502167696089238e-01
64 1 9.99505065172289875e-01
65 1 1.00000000000000000e+00
66 1 1.00000000000000000e+00
1 2 0.00000000000000000e+00
2 2 1.11860526858051697e-02
3 2 3.36531586811966502e-02
4 2 5.63028271258208604e-02
5 2 7.91198615494142637e-02
6 2 1.02088233461885419e-01
7 2 1.25191094239428091e-01
8 2 1.48410791342414500e-01
9 2 1.71728889019889391e-01
10 2 1.95126193627398165e-01
11 2 2.18582783653280655e-01
12 2 2.42078044513591717e-01
13 2 2.65590708137700138e-01
14 2 2.89098897325664017e-01
15 2 3.12580174815055456e-01
16 2 3.36011596949456870e-01
17 2 3.59369771793892567e-01
18 2 3.82630921494568899e-01
19 2 4.05770948632119044e-01
20 2 4.28765506269769781e-01
21 2 4.51590071351188782e-01
22 2 4.74220021057987384e-01
23 2 4.96630711694697913e-01
24 2 5.18797559630275962e-01
25 2 5.40696123790515348e-01
26 2 5.62302189165904909e-01
27 2 5.83591850775030285e-01
28 2 6.04541597505174888e-01
29 2 6.25128395239801460e-01
30 2 6.45329768677411764e-01
31 2 6.65123881248194770e-01
32 2 6.84489612543962123e-01
33 2 7.03406632693147960e-01
34 2 7.21855473135987302e-01
35 2 7.39817593285102104e-01
36 2 7.57275442593217885e-01
37 2 7.74212517592109739e-01
38 2 7.90613413514481667e-01
39 2 8.06463870162612007e-01
40 2 8.21750811743434117e-01
41 2 8.36462380448424914e-01
42 2 8.50587963617295384e-01
43 2 8.64118214386132122e-01
44 2 8.77045065782364519e-01
45 2 8.89361738289827897e-01
46 2 9.01062740966389719e-01
47 2 9.12143866253266267e-01
48 2 9.22602178668560646e-01
49 2 9.32435997627004687e-01
50 2 9.41644874672846188e-01
51 2 9.50229565452810676e-01
52 2 9.58191996790721534e-01
53 2 9.65535229254450789e-01
54 2 9.72263415629236682e-01
55 2 9.78381755729033853e-01
56 2 9.83896447989493272e-01
57 2 9.88814638292588310e-01
58 2 9.93144366474033147e-01
59 2 9.96894510960792846e-01
60 2 1.00007473197755203e+00
61 2 1.00269541374837234e+00
62 2 1.00476760610344074e+00
63 2 1.00630296588121504e+00
64 2 1.00731369849394836e+00
65 2 1.00781250000000000e+00
66 2 1.00781250000000000e+00
1 3 0.00000000000000000e+00
2 3 1.13594798592285065e-02
3 3 3.41749130793547254e-02
4 3 5.71757391742832091e-02
5 3 8.03465260695602201e-02
6 3 1.03670996771372023e-01
7 3 1.27132041436938653e-01
8 3 1.50711733843847256e-01
9 3 1.74391352415546597e-01
10 3 1.98151405931698860e-01
11 3 2.21971664019998155e-01
12 3 2.45831192490546663e-01
13 3 2.69708393535183832e-01
14 3 2.93581050772573515e-01
15 3 3.17426379075753995e-01
16 3 3.41221079072704270e-01
17 3 3.64941396162790144e-01
18 3 3.88563183843321946e-01
19 3 4.12061971091531754e-01
20 3 4.35413033498758373e-01
21 3 4.58591467806245989e-01
22 3 4.81572269446483292e-01
23 3 5.04330412651204929e-01
24 3 5.26840932647799631e-01
25 3 5.49079009430678555e-01
26 3 5.71020052563825931e-01
27 3 5.92639786445961048e-01
28 3 6.13914335450991500e-01
29 3 6.34820308344294482e-01
30 3 6.55334881370084887e-01
31 3 6.75435879407081385e-01
32 3 6.95101854598907276e-01
33 3 7.14312161882189045e-01
34 3 7.33047030859026005e-01
35 3 7.51287633491072637e-01
36 3 7.69016147129546801e-01
37 3 7.86215812438498918e-01
38 3 8.02870985817031757e-01
39 3 8.18967185979086687e-01
40 3 8.34491134406122881e-01
41 3 8.49430789447625179e-01
42 3 8.63775373905935617e-01
43 3 8.77515396004521664e-01
44 3 8.90642663701470938e-01
45 3 9.03150292371840746e-01
46 3 9.15032705942612767e-01
47 3 9.26285631621533878e-01
48 3 9.36906088415359939e-01
49 3 9.46892369683237312e-01
50 3 9.56244020016611240e-01
51 3 9.64961806777660414e-01
52 3 9.73047686663445988e-01
53 3 9.80504767692504609e-01
54 3 9.87337267034341104e-01
55 3 9.93550465120181969e-01
56 3 9.99150656485454425e-01
57 3 1.00414509780100047e+00
58 3 1.00854195355114995e+00
59 3 1.01235023981289807e+00
60 3 1.01557976658185511e+00
61 3 1.01824107907780426e+00
62 3 1.02034539844612993e+00
63 3 1.02190456225146642e+00
64 3 1.02293096513726534e+00
65 3 1.02343750000000000e+00
66 3 1.02343750000000000e+00
1 4 0.00000000000000000e+00
2 4 1.15329070326518398e-02
3 4 3.46966674775128145e-02
4 4 5.80486512227455509e-02
5 4 8.15731905897061765e-02
6 4 1.05253760080858613e-01
7 4 1.29072988634449187e-01
8 4 1.53012676345280041e-01
9 4 1.77053815811203802e-01
10 4 2.01176618235999582e-01
11 4 2.25360544386715655e-01
12 4 2.49584340467501609e-01
13 4 2.73826078932667583e-01
14 4 2.98063204219483069e-01
15 4 3.22272583336452423e-01
16 4 3.46430561195951670e-01
17 4 3.70513020531687665e-01
18 4 3.94495446192074883e-01
19 4 4.18352993550944408e-01
20 4 4.42060560727747021e-01
21 4 4.65592864261302974e-01
22 4 4.88924517834979255e-01
23 4 5.12030113607711779e-01
24 4 5.34884305665323079e-01
25 4 5.57461895070841540e-01
26 4 5.79737915961747063e-01
27 4 6.01687722116891588e-01
28 4 6.23287073396808222e-01
29 4 6.44512221448787392e-01
30 4 6.65339994062757900e-01
31 4 6.85747877565968222e-01
32 4 7.05714096653852319e-01
33 4 7.25217691071229797e-01
34 4 7.44238588582064597e-01
35 4 7.62757673697043059e-01
36 4 7.80756851665875828e-01
37 4 7.98219107284888207e-01
38 4 8.15128558119581847e-01
39 4 8.31470501795561479e-01
40 4 8.47231457068811644e-01
41 4 8.62399198446825666e-01
42 4 8.76962784194575962e-01
43 4 8.90912577622911317e-01
44 4 9.04240261620577357e-01
45 4 9.16938846453853262e-01
46 4 9.29002670918835927e-01
47 4 9.40427396989801490e-01
48 4 9.51209998162159009e-01
49 4 9.61348741739469936e-01
50 4 9.70843165360376514e-01
51 4 9.79694048102510040e-01
52 4 9.87903376536170108e-01
53 4 9.95474306130557984e-01
54 4 1.00241111843944553e+00
55 4 1.00871917451132997e+00
56 4 1.01440486498141547e+00
57 4 1.01947555730941275e+00
58 4 1.02393954062826675e+00
59 4 1.02780596866500362e+00
60 4 1.03108480118615820e+00
61 4 1.03378674440723639e+00
62 4 1.03592319078881889e+00
63 4 1.03750615862171780e+00
64 4 1.03854823178058253e+00
65 4 1.03906250000000000e+00
66 4 1.03906250000000000e+00
1 5 0.00000000000000000e+00
2 5 1.17063342060751748e-02
3 5 3.52184218756709036e-02
4 5 5.89215632712078927e-02
5 5 8.27998551098521329e-02
6 5 1.06836523390345217e-01
7 5 1.31013935831959694e-01
8 5 1.55313618846712881e-01
9 5 1.79716279206860979e-01
10 5 2.04201830540300305e-01
11 5 2.28749424753433184e-01
12 5 2.53337488444456527e-01
13 5 2.77943764330151277e-01
14 5 3.02545357666392567e-01
15 5 3.27118787597151017e-01
16 5 3.51640043319199069e-01
17 5 3.76084644900585241e-01
18 5 4.00427708540827876e-01
19 5 4.24644016010357117e-01
20 5 4.48708087956735724e-01
21 5 4.72594260716360126e-01
22 5 4.96276766223475163e-01
23 5 5.19729814564218628e-01
24 5 5.42927678682846748e-01
25 5 5.65844780711004525e-01
26 5 5.88455779359668085e-01
27 5 6.10735657787822239e-01
28 5 6.32659811342624945e-01
29 5 6.54204134553280414e-01
30 5 6.75345106755430913e-01
31 5 6.96059875724854948e-01
32 5 7.16326338708797361e-01
33 5 7.36123220260270883e-01
34 5 7.55430146305103190e-01
35 5 7.74227713903013703e-01
36 5 7.92497556202204856e-01
37 5 8.10222402131277386e-01
38 5 8.27386130422131827e-01
39 5 8.43973817612036159e-01
40 5 8.59971779731500630e-01
41 5 8.75367607446026041e-01
42 5 8.90150194483216195e-01
43 5 9.04309759241300970e-01
44 5 9.17837859539683887e-01
45 5 9.30727400535866112e-01
46 5 9.42972635895058975e-01
47 5 9.54569162358069323e-01
48 5 9.65513907908958413e-01
49 5 9.75805113795702561e-01
50 5 9.85442310704141899e-01
51 5 9.94426289427360111e-01
52 5 1.00275906640889434e+00
53 5 1.01044384456861147e+00
54 5 1.01748496984454984e+00
55 5 1.02388788390247787e+00
56 5 1.02965907347737651e+00
57 5 1.03480601681782503e+00
58 5 1.03933712770538356e+00
59 5 1.04326169751710895e+00
60 5 1.04658983579046150e+00
61 5 1.04933240973666853e+00
62 5 1.05150098313150808e+00
63 5 1.05310775499196940e+00
64 5 1.05416549842389951e+00
65 5 1.05468750000000022e+00
66 5 1.05468750000000000e+00
1 6 0.00000000000000000e+00
2 6 1.18797613794985098e-02
3 6 3.57401762738289858e-02
4 6 5.97944753196702414e-02
5 6 8.40265196299980754e-02
6 6 1.08419286699831821e-01
7 6 1.32954883029470200e-01
8 6 1.57614561348145665e-01
9 6 1.82378742602518157e-01
10 6 2.07227042844601028e-01
11 6 2.32138305120150712e-01
12 6 2.57090636421411445e-01
13 6 2.82061449727635027e-01
14 6 3.07027511113302065e-01
15 6 3.31964991857849556e-01
16 6 3.56849525442446414e-01
17 6 3.81656269269482817e-01
18 6 4.06359970889580924e-01
19 6 4.30935038469769827e-01
20 6 4.55355615185724316e-01
21 6 4.79595657171417333e-01
22 6 5.03629014611971071e-01
23 6 5.27429515520725589e-01
24 6 5.50971051700370418e-01
25 6 5.74227666351167620e-01
26 6 5.97173642757589107e-01
27 6 6.19783593458752891e-01
28 6 6.42032549288441556e-01
29 6 6.63896047657773547e-01
30 6 6.85350219448103926e-01
31 6 7.06371873883741674e-01
32 6 7.26938580763742515e-01
33 6 7.47028749449311857e-01
34 6 7.66621704028141671e-01
35 6 7.85697754108984348e-01
36 6 8.04238260738533661e-01
37 6 8.22225696977666676e-01
38 6 8.39643702724681806e-01
39 6 8.56477133428510840e-01
40 6 8.72712102394189615e-01
41 6 8.88336016445226417e-01
42 6 9.03337604771856428e-01
43 6 9.17706940859690623e-01
44 6 9.31435457458790306e-01
45 6 9.44515954617878850e-01
46 6 9.56942600871282134e-01
47 6 9.68710927726336934e-01
48 6 9.79817817655757928e-01
49 6 9.90261485851935297e-01
50 6 1.00004145604790717e+00
51 6 1.00915853075220996e+00
52 6 1.01761475628161868e+00
53 6 1.02541338300666518e+00
54 6 1.03255882124965437e+00
55 6 1.03905659329362554e+00
56 6 1.04491328197333777e+00
57 6 1.05013647632623730e+00
58 6 1.05473471478250036e+00
59 6 1.05871742636921429e+00
60 6 1.06209487039476458e+00
61 6 1.06487807506610066e+00
62 6 1.06707877547419705e+00
63 6 1.06870935136222056e+00
64 6 1.06978276506721648e+00
65 6 1.07031250000000044e+00
66 6 1.07031250000000000e+00
1 7 0.00000000000000000e+00
2 7 1.20531885529218466e-02
3 7 3.62619306719870679e-02
4 7 6.06673873681325831e-02
5 7 8.52531841501440318e-02
6 7 1.10002050009318425e-01
7 7 1.34895830226980706e-01
8 7 1.59915503849578450e-01
9 7 1.85041205998175334e-01
10 7 2.10252255148901779e-01
11 7 2.35527185486868240e-01
12 7 2.60843784398366363e-01
13 7 2.86179135125118722e-01
14 7 3.11509664560211508e-01
15 7 3.36811196118548095e-01
16 7 3.62059007565693758e-01
17 7 3.87227893638380338e-01
18 7 4.12292233238333916e-01
19 7 4.37226060929182481e-01
20 7 4.62003142414712908e-01
21 7 4.86597053626474429e-01
22 7 5.10981263000467090e-01
23 7 5.35129216477232550e-01
24 7 5.59014424717894198e-01
25 7 5.82610551991330716e-01
26 7 6.05891506155510018e-01
27 7 6.28831529129683431e-01
28 7 6.51405287234258168e-01
29 7 6.73587960762266569e-01
30 7 6.95355332140776938e-01
31 7 7.16683872042628511e-01
32 7 7.37550822818687668e-01
33 7 7.57934278638352943e-01
34 7 7.77813261751180152e-01
35 7 7.97167794314954881e-01
36 7 8.15978965274862689e-01
37 7 8.34228991824055965e-01
38 7 8.51901275027231897e-01
39 7 8.68980449244985520e-01
40 7 8.85452425056878489e-01
41 7 9.01304425444426793e-01
42 7 9.16525015060496773e-01
43 7 9.31104122478079943e-01
44 7 9.45033055377896725e-01
45 7 9.58304508699891699e-01
46 7 9.70912565847505293e-01
47 7 9.82852693094604546e-01
48 7 9.94121727402557331e-01
49 7 1.00471785790816792e+00
50 7 1.01464060139167223e+00
51 7 1.02389077207705959e+00
52 7 1.03247044615434302e+00
53 7 1.04038292144471844e+00
54 7 1.04763267265475890e+00
55 7 1.05422530268477344e+00
56 7 1.06016749046929881e+00
57 7 1.06546693583464958e+00
58 7 1.07013230185961716e+00
59 7 1.07417315522131962e+00
60 7 1.07759990499906788e+00
61 7 1.08042374039553279e+00
62 7 1.08265656781688602e+00
63 7 1.08431094773247194e+00
64 7 1.08540003171053367e+00
65 7 1.08593750000000067e+00
66 7 1.08593750000000000e+00
1 8 0.00000000000000000e+00
2 8 1.22266157263451834e-02
3 8 3.67836850701451570e-02
4 8 6.15402994165949180e-02
5 8 8.64798486702899882e-02
6 8 1.11584813318805029e-01
7 8 1.36836777424491213e-01
8 8 1.62216446351011234e-01
9 8 1.87703669393832540e-01
10 8 2.13277467453202529e-01
11 8 2.38916065853585768e-01
12 8 2.64596932375321281e-01
13 8 2.90296820522602417e-01
14 8 3.15991818007121006e-01
15 8 3.41657400379246579e-01
16 8 3.67268489688941102e-01
17 8 3.92799518007277804e-01
18 8 4.18224495587086909e-01
19 8 4.43517083388595135e-01
20 8 4.68650669643701501e-01
21 8 4.93598450081531637e-01
22 8 5.18333511388962997e-01
23 8 5.42828917433739511e-01
24 8 5.67057797735417868e-01
25 8 5.90993437631493812e-01
26 8 6.14609369553431040e-01
27 8 6.37879464800613860e-01
28 8 6.60778025180074779e-01
29 8 6.83279873866759591e-01
30 8 7.05360444833449951e-01
31 8 7.26995870201515126e-01
32 8 7.48163064873632822e-01
33 8 7.68839807827394028e-01
34 8 7.89004819474218744e-01
35 8 8.08637834520925414e-01
36 8 8.27719669811191716e-01
37 8 8.46232286670445255e-01
38 8 8.64158847329782098e-01
39 8 8.81483765061460089e-01
40 8 8.98192747719567364e-01
41 8 9.14272834443627058e-01
42 8 9.29712425349137117e-01
43 8 9.44501304096469707e-01
44 8 9.58630653297003255e-01
45 8 9.72093062781904549e-01
46 8 9.84882530823728453e-01
47 8 9.96994458462872379e-01
48 8 1.00842563714935674e+00
49 8 1.01917422996440066e+00
50 8 1.02923974673543728e+00
51 8 1.03862301340190943e+00
52 8 1.04732613602706737e+00
53 8 1.05535245988277193e+00
54 8 1.06270652405986321e+00
55 8 1.06939401207592133e+00
56 8 1.07542169896525985e+00
57 8 1.08079739534306185e+00
58 8 1.08552988893673397e+00
59 8 1.08962888407342495e+00
60 8 1.09310493960337118e+00
61 8 1.09596940572496515e+00
62 8 1.09823436015957498e+00
63 8 1.09991254410272354e+00
64 8 1.10101729835385087e+00
65 8 1.10156250000000089e+00
66 8 1.10156250000000000e+00
1 9 0.00000000000000000e+00
2 9 1.24000428997685201e-02
3 9 3.73054394683032461e-02
4 9 6.24132114650572528e-02
5 9 8.77065131904359307e-02
6 9 1.13167576628291633e-01
7 9 1.38777724622001691e-01
8 9 1.64517388852444019e-01
9 9 1.90366132789489745e-01
10 9 2.16302679757503280e-01
11 9 2.42304946220303297e-01
12 9 2.68350080352276199e-01
13 9 2.94414505920086111e-01
14 9 3.20473971454030504e-01
15 9 3.46503604639945118e-01
16 9 3.72477971812188446e-01
17 9 3.98371142376175380e-01
18 9 4.24156757935839901e-01
19 9 4.49808105848007844e-01
20 9 4.75298196872690148e-01
21 9 5.00599846536588844e-01
22 9 5.25685759777459016e-01
23 9 5.50528618390246471e-01
24 9 5.75101170752941537e-01
25 9 5.99376323271656797e-01
26 9 6.23327232951352062e-01
27 9 6.46927400471544511e-01
28 9 6.70150763125891502e-01
29 9 6.92971786971252612e-01
30 9 7.15365557526122964e-01
31 9 7.37307868360401852e-01
32 9 7.58775306928577975e-01
33 9 7.79745337016435114e-01
34 9 8.00196377197257336e-01
35 9 8.20107874726895947e-01
36 9 8.39460374347520633e-01
37 9 8.58235581516834434e-01
38 9 8.76416419632332300e-01
39 9 8.93987080877934770e-01
40 9 9.10933070382256349e-01
41 9 9.27241243442827434e-01
42 9 9.42899835637777350e-01
43 9 9.57898485714859360e-01
44 9 9.72228251216109673e-01
45 9 9.85881616863917398e-01
46 9 9.98852495799951723e-01
47 9 1.01113622383113988e+00
48 9 1.02272954689615614e+00
49 9 1.03363060202063339e+00
50 9 1.04383889207920233e+00
51 9 1.05335525472675906e+00
52 9 1.06218182589979171e+00
53 9 1.07032199832082520e+00
54 9 1.07778037546496774e+00
55 9 1.08456272146706900e+00
56 9 1.09067590746122112e+00
57 9 1.09612785485147390e+00
58 9 1.10092747601385055e+00
59 9 1.10508461292553029e+00
60 9 1.10860997420767449e+00
61 9 1.11151507105439706e+00
62 9 1.11381215250226395e+00
63 9 1.11551414047297515e+00
64 9 1.11663456499716784e+00
65 9 1.11718750000000089e+00
66 9 1.11718750000000000e+00
1 10 0.00000000000000000e+00
2 10 1.25734700731918551e-02
3 10 3.78271938664613352e-02
4 10 6.32861235135195876e-02
5 10 8.89331777105818871e-02
6 10 1.14750339937778237e-01
7 10 1.40718671819512198e-01
8 10 1.66818331353876803e-01
9 10 1.93028596185146950e-01
10 10 2.19327892061804031e-01
11 10 2.45693826587020825e-01
12 10 2.72103228329231117e-01
13 10 2.98532191317569806e-01
14 10 3.24956124900940002e-01
15 10 3.51349808900643656e-01
16 10 3.77687453935435791e-01
17 10 4.03942766745072956e-01
18 10 4.30089020284592949e-01
19 10 4.56099128307420554e-01
20 10 4.81945724101678796e-01
21 10 5.07601242991645996e-01
22 10 5.33038008165954924e-01
23 10 5.58228319346753432e-01
24 10 5.83144543770465207e-01
25 10 6.07759208911819782e-01
26 10 6.32045096349272972e-01
27 10 6.55975336142475163e-01
28 10 6.79523501071708114e-01
29 10 7.02663700075745745e-01
30 10 7.25370670218795977e-01
31 10 7.47619866519288467e-01
32 10 7.69387548983523240e-01
33 10 7.90650866205476199e-01
34 10 8.11387934920296039e-01
35 10 8.31577914932866369e-01
36 10 8.51201078883849549e-01
37 10 8.70238876363223723e-01
38 10 8.88673991934882279e-01
39 10 9.06490396694409561e-01
40 10 9.23673393044945223e-01
41 10 9.40209652442027810e-01
42 10 9.56087245926417473e-01
43 10 9.71295667333249124e-01
44 10 9.85825849135216092e-01
45 10 9.99670170945930137e-01
46 10 1.01282246077617488e+00
47 10 1.02527798919940771e+00
48 10 1.03703345664295532e+00
49 10 1.04808697407686591e+00
50 10 1.05843803742296760e+00
51 10 1.06808749605160891e+00
52 10 1.07703751577251605e+00
53 10 1.08529153675887868e+00
54 10 1.09285422687007228e+00
55 10 1.09973143085821690e+00
56 10 1.10593011595718216e+00
57 10 1.11145831435988618e+00
58 10 1.11632506309096757e+00
59 10 1.12054034177763562e+00
60 10 1.12411500881197757e+00
61 10 1.12706073638382920e+00
62 10 1.12938994484495292e+00
63 10 1.13111573684322675e+00
64 10 1.13225183164048482e+00
65 10 1.13281250000000067e+00
66 10 1.13281250000000000e+00
1 11 0.00000000000000000e+00
2 11 1.27468972466151902e-02
3 11 3.83489482646194244e-02
4 11 6.41590355619819225e-02
5 11 9.01598422307278435e-02
6 11 1.16333103247264841e-01
7 11 1.42659619017022704e-01
8 11 1.69119273855309615e-01
9 11 1.95691059580804155e-01
10 11 2.22353104366104781e-01
11 11 2.49082706953738353e-01
12 11 2.75856376306186035e-01
13 11 3.02649876715053556e-01
14 11 3.29438278347849556e-01
15 11 3.56196013161342140e-01
16 11 3.82896936058683135e-01
17 11 4.09514391113970533e-01
18 11 4.36021282633345941e-01
19 11 4.62390150766833208e-01
20 11 4.88593251330667389e-01
21 11 5.14602639446703147e-01
22 11 5.40390256554450832e-01
23 11 5.65928020303260282e-01
24 11 5.91187916787988876e-01
25 11 6.16142094551982766e-01
26 11 6.40762959747193994e-01
27 11 6.65023271813405925e-01
28 11 6.88896239017524836e-01
29 11 7.12355613180238767e-01
30 11 7.35375782911469211e-01
31 11 7.57931864678175193e-01
32 11 7.79999791038468393e-01
33 11 8.01556395394517174e-01
34 11 8.22579492643334631e-01
35 11 8.43047955138836902e-01
36 11 8.62941783420178576e-01
37 11 8.82242171209613124e-01
38 11 9.00931564237432259e-01
39 11 9.18993712510884242e-01
40 11 9.36413715707634098e-01
41 11 9.53178061441228186e-01
42 11 9.69274656215057706e-01
43 11 9.84692848951638666e-01
44 11 9.99423447054322400e-01
45 11 1.01345872502794299e+00
46 11 1.02679242575239793e+00
47 11 1.03941975456767532e+00
48 11 1.05133736638975472e+00
49 11 1.06254334613309864e+00
50 11 1.07303718276673243e+00
51 11 1.08281973737645876e+00
52 11 1.09189320564524039e+00
53 11 1.10026107519693217e+00
54 11 1.10792807827517659e+00
55 11 1.11490014024936479e+00
56 11 1.12118432445314342e+00
57 11 1.12678877386829845e+00
58 11 1.13172265016808438e+00
59 11 1.13599607062974095e+00
60 11 1.13962004341628087e+00
61 11 1.14260640171326133e+00
62 11 1.14496773718764189e+00
63 11 1.14671733321347813e+00
64 11 1.14786909828380179e+00
65 11 1.14843750000000067e+00
66 11 1.14843750000000000e+00
1 12 0.00000000000000000e+00
2 12 1.29203244200385269e-02
3 12 3.88707026627775135e-02
4 12 6.50319476104442712e-02
5 12 9.13865067508738138e-02
6 12 1.17915866556751417e-01
7 12 1.44600566214533210e-01
8 12 1.71420216356742400e-01
9 12 1.98353522976461361e-01
10 12 2.25378316670405532e-01
11 12 2.52471587320455881e-01
12 12 2.79609524283140953e-01
13 12 3.06767562112537251e-01
14 12 3.33920431794759109e-01
15 12 3.61042217422040679e-01
16 12 3.88106418181930535e-01
17 12 4.15086015482868109e-01
18 12 4.41953544982098989e-01
19 12 4.68681173226245917e-01
20 12 4.95240778559656092e-01
21 12 5.21604035901760299e-01
22 12 5.47742504942946851e-01
23 12 5.73627721259767243e-01
24 12 5.99231289805512546e-01
25 12 6.24524980192145862e-01
26 12 6.49480823145114905e-01
27 12 6.74071207484336576e-01
28 12 6.98268976963341448e-01
29 12 7.22047526284731789e-01
30 12 7.45380895604142224e-01
31 12 7.68243862837061919e-01
32 12 7.90612033093413547e-01
33 12 8.12461924583558259e-01
34 12 8.33771050366373223e-01
35 12 8.54517995344807657e-01
36 12 8.74682487956507493e-01
37 12 8.94245466056002414e-01
38 12 9.13189136539982349e-01
39 12 9.31497028327358811e-01
40 12 9.49154038370322861e-01
41 12 9.66146470440428562e-01
42 12 9.82462066503697939e-01
43 12 9.98090030570028319e-01
44 12 1.01302104497342893e+00
45 12 1.02724727910995584e+00
46 12 1.04076239072862098e+00
47 12 1.05356151993594316e+00
48 12 1.06564127613655413e+00
49 12 1.07699971818933116e+00
50 12 1.08763632811049749e+00
51 12 1.09755197870130861e+00
52 12 1.10674889551796496e+00
53 12 1.11523061363498566e+00
54 12 1.12300192968028090e+00
55 12 1.13006884964051268e+00
56 12 1.13643853294910446e+00
57 12 1.14211923337671073e+00
58 12 1.14712023724520118e+00
59 12 1.15145179948184628e+00
60 12 1.15512507802058417e+00
61 12 1.15815206704269347e+00
62 12 1.16054552953033108e+00
63 12 1.16231892958372951e+00
64 12 1.16348636492711899e+00
65 12 1.16406250000000067e+00
66 12 1.16406250000000000e+00
1 13 0.00000000000000000e+00
2 13 1.30937515934618619e-02
3 13 3.93924570609356026e-02
4 13 6.59048596589066199e-02
5 13 9.26131712710197702e-02
6 13 1.19498629866238007e-01
7 13 1.46541513412043745e-01
8 13 1.73721158858175156e-01
9 13 2.01015986372118538e-01
10 13 2.28403528974706310e-01
11 13 2.55860467687173410e-01
12 13 2.83362672260095871e-01
13 13 3.10885247510020946e-01
14 13 3.38402585241668608e-01
15 13 3.65888421682739218e-01
16 13 3.93315900305177935e-01
17 13 4.20657639851765630e-01
18 13 4.47885807330852037e-01
19 13 4.74972195685658627e-01
20 13 5.01888305788644740e-01
21 13 5.28605432356817451e-01
22 13 5.55094753331442758e-01
23 13 5.81327422216274092e-01
24 13 6.07274662823036104e-01
25 13 6.32907865832308847e-01
26 13 6.58198686543035816e-01
27 13 6.83119143155267339e-01
28 13 7.07641714909158059e-01
29 13 7.31739439389224811e-01
30 13 7.55386008296815237e-01
31 13 7.78555860995948645e-01
32 13 8.01224275148358700e-01
33 13 8.23367453772599123e-01
34 13 8.44962608089411704e-01
35 13 8.65988035550778079e-01
36 13 8.86423192492836520e-01
37 13 9.06248760902391592e-01
38 13 9.25446708842532439e-01
39 13 9.44000344143833381e-01
40 13 9.61894361033011736e-01
41 13 9.79114879439628938e-01
42 13 9.95649476792338284e-01
43 13 1.01148721218841797e+00
44 13 1.02661864289253546e+00
45 13 1.04103583319196868e+00
46 13 1.05473235570484425e+00
47 13 1.06770328530421099e+00
48 13 1.07994518588335375e+00
49 13 1.09145609024556367e+00
50 13 1.10223547345426254e+00
51 13 1.11228422002615845e+00
52 13 1.12160458539068930e+00
53 13 1.13020015207303937e+00
54 13 1.13807578108538521e+00
55 13 1.14523755903166036e+00
56 13 1.15169274144506550e+00
57 13 1.15744969288512300e+00
58 13 1.16251782432231798e+00
59 13 1.16690752833395139e+00
60 13 1.17063011262488725e+00
61 13 1.17369773237212560e+00
62 13 1.17612332187302004e+00
63 13 1.17792052595398089e+00
64 13 1.17910363157043574e+00
65 13 1.17968750000000067e+00
66 13 1.17968750000000000e+00
1 14 0.00000000000000000e+00
2 14 1.32671787668852004e-02
3 14 3.99142114590936917e-02
4 14 6.67777717073689409e-02
5 14 9.38398357911657266e-02
6 14 1.21081393175724583e-01
7 14 1.48482460609554251e-01
8 14 1.76022101359607941e-01
9 14 2.03678449767775771e-01
10 14 2.31428741279007061e-01
11 14 2.59249348053890938e-01
12 14 2.87115820237050789e-01
13 14 3.15002932907504640e-01
14 14 3.42884738688578106e-01
15 14 3.70734625943437757e-01
16 14 3.98525382428425334e-01
17 14 4.26229264220663207e-01
18 14 4.53818069679605085e-01
19 14 4.81263218145071336e-01
20 14 5.08535833017633387e-01
21 14 5.35606828811874713e-01
22 14 5.62447001719938666e-01
23 14 5.89027123172781053e-01
24 14 6.15318035840559774e-01
25 14 6.41290751472471832e-01
26 14 6.66916549940956838e-01
27 14 6.92167078826198101e-01
28 14 7.17014452854974671e-01
29 14 7.41431352493717943e-01
30 14 7.65391120989488249e-01
31 14 7.88867859154835371e-01
32 14 8.11836517203303853e-01
33 14 8.34272982961640208e-01
34 14 8.56154165812450296e-01
35 14 8.77458075756748612e-01
36 14 8.98163897029165437e-01
37 14 9.18252055748780882e-01
38 14 9.37704281145082419e-01
39 14 9.56503659960307950e-01
40 14 9.74634683695700721e-01
41 14 9.92083288438829203e-01
42 14 1.00883688708097852e+00
43 14 1.02488439380680774e+00
44 14 1.04021624081164199e+00
45 14 1.05482438727398131e+00
46 14 1.06870232068106730e+00
47 14 1.08184505067247883e+00
48 14 1.09424909563015316e+00
49 14 1.10591246230179641e+00
50 14 1.11683461879802759e+00
51 14 1.12701646135100830e+00
52 14 1.13646027526341364e+00
53 14 1.14516969051109285e+00
54 14 1.15314963249048974e+00
55 14 1.16040626842280803e+00
56 14 1.16694694994102655e+00
57 14 1.17278015239353528e+00
58 14 1.17791541139943456e+00
59 14 1.18236325718605673e+00
60 14 1.18613514722919033e+00
61 14 1.18924339770155796e+00
62 14 1.19170111421570901e+00
63 14 1.19352212232423205e+00
64 14 1.19472089821375271e+00
65 14 1.19531250000000044e+00
66 14 1.19531250000000000e+00
1 15 0.00000000000000000e+00
2 15 1.34406059403085372e-02
3 15 4.04359658572517877e-02
4 15 6.76506837558312896e-02
5 15 9.50665003113116969e-02
6 15 1.22664156485211187e-01
7 15 1.50423407807064785e-01
8 15 1.78323043861040698e-01
9 15 2.06340913163432976e-01
10 15 2.34453953583307784e-01
11 15 2.62638228420608466e-01
12 15 2.90868968214005708e-01
13 15 3.19120618304988335e-01
14 15 3.47366892135487604e-01
15 15 3.75580830204136296e-01
16 15 4.03734864551672734e-01
17 15 4.31800888589560727e-01
18 15 4.59750332028358077e-01
19 15 4.87554240604484046e-01
20 15 5.15183360246621924e-01
21 15 5.42608225266931865e-01
22 15 5.69799250108434463e-01
23 15 5.96726824129288014e-01
24 15 6.23361408858083332e-01
25 15 6.49673637112634705e-01
26 15 6.75634413338877859e-01
27 15 7.01215014497128752e-01
28 15 7.26387190800791394e-01
29 15 7.51123265598210854e-01
30 15 7.75396233682161373e-01
31 15 7.99179857313722097e-01
32 15 8.22448759258248896e-01
33 15 8.45178512150681294e-01
34 15 8.67345723535488777e-01
35 15 8.88928115962719256e-01
36 15 9.09904601565494464e-01
37 15 9.30255350595170172e-01
38 15 9.49961853447632398e-01
39 15 9.69006975776782520e-01
40 15 9.87375006358389706e-01
41 15 1.00505169743802947e+00
42 15 1.02202429736961897e+00
43 15 1.03828157542519728e+00
44 15 1.05381383873074830e+00
45 15 1.06861294135599416e+00
46 15 1.08267228565729035e+00
47 15 1.09598681604074644e+00
48 15 1.10855300537695278e+00
49 15 1.12036883435802892e+00
50 15 1.13143376414179286e+00
51 15 1.14174870267585815e+00
52 15 1.15131596513613776e+00
53 15 1.16013922894914612e+00
54 15 1.16822348389559405e+00
55 15 1.17557497781395570e+00
56 15 1.18220115843698781e+00
57 15 1.18811061190194756e+00
58 15 1.19331299847655137e+00
59 15 1.19781898603816184e+00
60 15 1.20164018183349341e+00
61 15 1.20478906303099009e+00
62 15 1.20727890655839820e+00
63 15 1.20912371869448343e+00
64 15 1.21033816485706991e+00
65 15 1.21093750000000044e+00
66 15 1.21093750000000000e+00
1 16 0.00000000000000000e+00
2 16 1.36140331137318740e-02
3 16 4.09577202554098768e-02
4 16 6.85235958042936244e-02
5 16 9.62931648314576394e-02
6 16 1.24246919794697791e-01
7 16 1.52364355004575291e-01
8 16 1.80623986362473510e-01
9 16 2.09003376559090182e-01
10 16 2.37479165887608534e-01
11 16 2.66027108787325994e-01
12 16 2.94622116190960570e-01
13 16 3.23238303702472030e-01
14 16 3.51849045582397157e-01
15 16 3.80427034464834779e-01
16 16 4.08944346674920078e-01
17 16 4.37372512958458193e-01
18 16 4.65682594377111125e-01
19 16 4.93845263063896756e-01
20 16 5.21830887475610683e-01
21 16 5.49609621721989017e-01
22 16 5.77151498496930371e-01
23 16 6.04426525085794863e-01
24 16 6.31404781875606891e-01
25 16 6.58056522752797690e-01
26 16 6.84352276736798881e-01
27 16 7.10262950168059404e-01
28 16 7.35759928746608005e-01
29 16 7.60815178702703876e-01
30 16 7.85401346374834497e-01
31 16 8.09491855472608823e-01
32 16 8.33061001313194160e-01
33 16 8.56084041339722379e-01
34 16 8.78537281258527258e-01
35 16 9.00398156168689900e-01
36 16 9.21645306101823381e-01
37 16 9.42258645441559572e-01
38 16 9.62219425750182600e-01
39 16 9.81510291593257200e-01
40 16 1.00011532902107869e+00
41 16 1.01802010643722984e+00
42 16 1.03521170765825921e+00
43 16 1.05167875704358682e+00
44 16 1.06741143664985483e+00
45 16 1.08240149543800701e+00
46 16 1.09664225063351339e+00
47 16 1.11012858140901405e+00
48 16 1.12285691512375219e+00
49 16 1.13482520641426166e+00
50 16 1.14603290948555769e+00
51 16 1.15648094400070778e+00
52 16 1.16617165500886211e+00
53 16 1.17510876738719960e+00
54 16 1.18329733530069858e+00
55 16 1.19074368720510360e+00
56 16 1.19745536693294907e+00
57 16 1.20344107141035983e+00
58 16 1.20871058555366839e+00
59 16 1.21327471489026717e+00
60 16 1.21714521643779650e+00
61 16 1.22033472836042223e+00
62 16 1.22285669890108717e+00
63 16 1.22472531506473459e+00
64 16 1.22595543150038688e+00
65 16 1.22656250000000022e+00
66 16 1.22656250000000000e+00
1 17 0.00000000000000000e+00
2 17 1.37874602871552107e-02
3 17 4.14794746535679590e-02
4 17 6.93965078527559592e-02
5 17 9.75198293516035958e-02
6 17 1.25829683104184381e-01
7 17 1.54305302202085798e-01
8 17 1.82924928863906294e-01
9 17 2.11665839954747387e-01
10 17 2.40504378191909285e-01
11 17 2.69415989154043523e-01
12 17 2.98375264167915433e-01
13 17 3.27355989099955724e-01
14 17 3.56331199029306711e-01
15 17 3.85273238725533373e-01
16 17 4.14153828798167423e-01
17 17 4.42944137327355658e-01
18 17 4.71614856725864118e-01
19 17 5.00136285523309465e-01
20 17 5.28478414704599331e-01
21 17 5.56611018177046168e-01
22 17 5.84503746885426279e-01
23 17 6.12126226042301824e-01
24 17 6.39448154893130560e-01
25 17 6.66439408392960675e-01
26 17 6.93070140134719903e-01
27 17 7.19310885838990055e-01
28 17 7.45132666692424617e-01
29 17 7.70507091807196898e-01
30 17 7.95406459067507621e-01
31 17 8.19803853631495660e-01
32 17 8.43673243368139314e-01
33 17 8.66989570528763465e-01
34 17 8.89728838981565739e-01
35 17 9.11868196374660434e-01
36 17 9.33386010638152408e-01
37 17 9.54261940287948973e-01
38 17 9.74476998052732690e-01
39 17 9.94013607409731881e-01
40 17 1.01285565168376768e+00
41 17 1.03098851543643022e+00
42 17 1.04839911794689944e+00
43 17 1.06507593866197636e+00
44 17 1.08100903456896114e+00
45 17 1.09619004952001986e+00
46 17 1.11061221560973644e+00
47 17 1.12427034677728166e+00
48 17 1.13716082487055159e+00
49 17 1.14928157847049439e+00
50 17 1.16063205482932275e+00
51 17 1.17121318532555763e+00
52 17 1.18102734488158645e+00
53 17 1.19007830582525309e+00
54 17 1.19837118670580312e+00
55 17 1.20591239659625149e+00
56 17 1.21270957542891011e+00
57 17 1.21877153091877188e+00
58 17 1.22410817263078497e+00
59 17 1.22873044374237250e+00
60 17 1.23265025104209958e+00
61 17 1.23588039368985436e+00
62 17 1.23843449124377614e+00
63 17 1.24032691143498597e+00
64 17 1.24157269814370386e+00
65 17 1.24218750000000022e+00
66 17 1.24218750000000000e+00
1 18 0.00000000000000000e+00
2 18 1.39608874605785457e-02
3 18 4.20012290517260481e-02
4 18 7.02694199012182941e-02
5 18 9.87464938717495522e-02
6 18 1.27412446413670971e-01
7 18 1.56246249399596304e-01
8 18 1.85225871365339051e-01
9 18 2.14328303350404564e-01
10 18 2.43529590496210063e-01
11 18 2.72804869520760995e-01
12 18 3.02128412144870295e-01
13 18 3.31473674497439474e-01
14 18 3.60813352476216209e-01
15 18 3.90119442986231857e-01
16 18 4.19363310921414767e-01
17 18 4.48515761696253179e-01
18 18 4.77547119074617110e-01
19 18 5.06427307982722175e-01
20 18 5.35125941933588090e-01
21 18 5.63612414632103431e-01
22 18 5.91855995273922186e-01
23 18 6.19825926998808785e-01
24 18 6.47491527910654119e-01
25 18 6.74822294033123549e-01
26 18 7.01788003532640925e-01
27 18 7.28358821509920928e-01
28 18 7.54505404638241228e-01
29 18 7.80199004911689920e-01
30 18 8.05411571760180633e-01
31 18 8.30115851790382386e-01
32 18 8.54285485423084356e-01
33 18 8.77895099717804439e-01
34 18 9.00920396704604332e-01
35 18 9.23338236580631078e-01
36 18 9.45126715174481324e-01
37 18 9.66265235134338263e-01
38 18 9.86734570355282781e-01
39 18 1.00651692322620656e+00
40 18 1.02559597434645666e+00
41 18 1.04395692443563060e+00
42 18 1.06158652823553967e+00
43 18 1.07847312028036613e+00
44 18 1.09460663248806767e+00
45 18 1.10997860360203293e+00
46 18 1.12458218058595949e+00
47 18 1.13841211214554927e+00
48 18 1.15146473461735099e+00
49 18 1.16373795052672713e+00
50 18 1.17523120017308780e+00
51 18 1.18594542665040747e+00
52 18 1.19588303475431079e+00
53 18 1.20504784426330658e+00
54 18 1.21344503811090765e+00
55 18 1.22108110598739938e+00
56 18 1.22796378392487116e+00
57 18 1.23410199042718416e+00
58 18 1.23950575970790178e+00
59 18 1.24418617259447806e+00
60 18 1.24815528564640266e+00
61 18 1.25142605901928650e+00
62 18 1.25401228358646510e+00
63 18 1.25592850780523735e+00
64 18 1.25718996478702061e+00
65 18 1.25781250000000022e+00
66 18 1.25781250000000000e+00
1 19 0.00000000000000000e+00
2 19 1.41343146340018825e-02
3 19 4.25229834498841372e-02
4 19 7.11423319496806428e-02
5 19 9.99731583918955224e-02
6 19 1.28995209723157561e-01
7 19 1.58187196597106811e-01
8 19 1.87526813866771808e-01
9 19 2.16990766746061742e-01
10 19 2.46554802800510814e-01
11 19 2.76193749887478579e-01
12 19 3.05881560121825213e-01
13 19 3.35591359894923225e-01
14 19 3.65295505923125763e-01
15 19 3.94965647246930451e-01
16 19 4.24572793044662111e-01
17 19 4.54087386065150755e-01
18 19 4.83479381423370158e-01
19 19 5.12718330442134995e-01
20 19 5.41773469162576737e-01
21 19 5.70613811087160694e-01
22 19 5.99208243662418094e-01
23 19 6.27525627955315746e-01
24 19 6.55534900928177788e-01
25 19 6.83205179673286644e-01
26 19 7.10505866930561947e-01
27 19 7.37406757180851580e-01
28 19 7.63878142584057951e-01
29 19 7.89890918016182941e-01
30 19 8.15416684452853757e-01
31 19 8.40427849949269112e-01
32 19 8.64897727478029399e-01
33 19 8.88800628906845525e-01
34 19 9.12111954427642813e-01
35 19 9.34808276786601611e-01
36 19 9.56867419710810463e-01
37 19 9.78268529980727553e-01
38 19 9.98992142657832871e-01
39 19 1.01902023904268102e+00
40 19 1.03833629700914565e+00
41 19 1.05692533343483119e+00
42 19 1.07477393852417991e+00
43 19 1.09187030189875589e+00
44 19 1.10820423040717420e+00
45 19 1.12376715768404578e+00
46 19 1.13855214556218254e+00
47 19 1.15255387751381688e+00
48 19 1.16576864436415040e+00
49 19 1.17819432258295986e+00
50 19 1.18983034551685285e+00
51 19 1.20067766797525710e+00
52 19 1.21073872462703491e+00
53 19 1.22001738270136006e+00
54 19 1.22851888951601240e+00
55 19 1.23624981537854728e+00
56 19 1.24321799242083242e+00
57 19 1.24943244993559643e+00
58 19 1.25490334678501858e+00
59 19 1.25964190144658317e+00
60 19 1.26366032025070596e+00
61 19 1.26697172434871863e+00
62 19 1.26959007592915407e+00
63 19 1.27153010417548873e+00
64 19 1.27280723143033780e+00
65 19 1.27343750000000022e+00
66 19 1.27343750000000000e+00
1 20 0.00000000000000000e+00
2 20 1.43077418074252193e-02
3 20 4.30447378480422332e-02
4 20 7.20152439981429776e-02
5 20 1.01199822912041479e-01
6 20 1.30577973032644151e-01
7 20 1.60128143794617289e-01
8 20 1.89827756368204592e-01
9 20 2.19653230141718947e-01
10 20 2.49580015104811564e-01
11 20 2.79582630254196163e-01
12 20 3.09634708098780076e-01
13 20 3.39709045292406919e-01
14 20 3.69777659370035261e-01
15 20 3.99811851507628990e-01
16 20 4.29782275167909511e-01
17 20 4.59659010434048332e-01
18 20 4.89411643772123151e-01
19 20 5.19009352901547705e-01
20 20 5.48420996391565385e-01
21 20 5.77615207542217846e-01
22 20 6.06560492050913891e-01
23 20 6.35225328911822706e-01
24 20 6.63578273945701569e-01
25 20 6.91588065313449629e-01
26 20 7.19223730328483080e-01
27 20 7.46454692851782231e-01
28 20 7.73250880529874562e-01
29 20 7.99582831120676074e-01
30 20 8.25421797145526770e-01
31 20 8.50739848108155838e-01
32 20 8.75509969532974552e-01
33 20 8.99706158095886610e-01
34 20 9.23303512150681405e-01
35 20 9.46278316992572144e-01
36 20 9.68608124247139601e-01
37 20 9.90271824827116953e-01
38 20 1.01124971496038296e+00
39 20 1.03152355485915570e+00
40 20 1.05107661967183441e+00
41 20 1.06989374243403157e+00
42 20 1.08796134881282014e+00
43 20 1.10526748351714543e+00
44 20 1.12180182832628050e+00
45 20 1.13755571176605863e+00
46 20 1.15252211053840581e+00
47 20 1.16669564288208449e+00
48 20 1.18007255411094980e+00
49 20 1.19265069463919238e+00
50 20 1.20442949086061790e+00
51 20 1.21540990930010695e+00
52 20 1.22559441449975925e+00
53 20 1.23498692113941377e+00
54 20 1.24359274092111693e+00
55 20 1.25141852476969517e+00
56 20 1.25847220091679368e+00
57 20 1.26476290944400893e+00
58 20 1.27030093386213516e+00
59 20 1.27509763029868850e+00
60 20 1.27916535485500904e+00
61 20 1.28251738967815099e+00
62 20 1.28516786827184304e+00
63 20 1.28713170054574011e+00
64 20 1.28842449807365456e+00
65 20 1.28906250000000044e+00
66 20 1.28906250000000000e+00
1 21 0.00000000000000000e+00
2 21 1.44811689808485543e-02
3 21 4.35664922462003293e-02
4 21 7.28881560466053124e-02
5 21 1.02426487432187435e-01
6 21 1.32160736342130741e-01
7 21 1.62069090992127796e-01
8 21 1.92128698869637377e-01
9 21 2.22315693537376152e-01
10 21 2.52605227409112287e-01
11 21 2.82971510620913691e-01
12 21 3.13387856075734994e-01
13 21 3.43826730689890614e-01
14 21 3.74259812816944759e-01
15 21 4.04658055768327529e-01
16 21 4.34991757291156855e-01
17 21 4.65230634802945964e-01
18 21 4.95343906120876198e-01
19 21 5.25300375360960414e-01
20 21 5.55068523620554144e-01
21 21 5.84616603997274997e-01
22 21 6.13912740439409799e-01
23 21 6.42925029868329667e-01
24 21 6.71621646963225349e-01
25 21 6.99970950953612614e-01
26 21 7.27941593726404212e-01
27 21 7.55502628522712771e-01
28 21 7.82623618475691063e-01
29 21 8.09274744225169207e-01
30 21 8.35426909838199783e-01
31 21 8.61051846267042675e-01
32 21 8.86122211587919595e-01
33 21 9.10611687284927585e-01
34 21 9.34495069873719886e-01
35 21 9.57748357198542677e-01
36 21 9.80348828783468629e-01
37 21 1.00227511967350624e+00
38 21 1.02350728726293316e+00
39 21 1.04402687067563016e+00
40 21 1.06381694233452317e+00
41 21 1.08286215143323195e+00
42 21 1.10114875910146059e+00
43 21 1.11866466513553497e+00
44 21 1.13539942624538681e+00
45 21 1.15134426584807148e+00
46 21 1.16649207551462908e+00
47 21 1.18083740825035233e+00
48 21 1.19437646385774920e+00
49 21 1.20710706669542511e+00
50 21 1.21902863620438295e+00
51 21 1.23014215062495680e+00
52 21 1.24045010437248382e+00
53 21 1.24995645957746726e+00
54 21 1.25866659232622125e+00
55 21 1.26658723416084285e+00
56 21 1.27372640941275472e+00
57 21 1.28009336895242098e+00
58 21 1.28569852093925174e+00
59 21 1.29055335915079383e+00
60 21 1.29467038945931212e+00
61 21 1.29806305500758290e+00
62 21 1.30074566061453178e+00
63 21 1.30273329691599149e+00
64 21 1.30404176471697153e+00
65 21 1.30468750000000044e+00
66 21 1.30468750000000000e+00
1 22 0.00000000000000000e+00
2 22 1.46545961542718893e-02
3 22 4.40882466443584184e-02
4 22 7.37610680950676473e-02
5 22 1.03653151952333392e-01
6 22 1.33743499651617331e-01
7 22 1.64010038189638302e-01
8 22 1.94429641371070161e-01
9 22 2.24978156933033330e-01
10 22 2.55630439713413038e-01
11 22 2.86360390987631275e-01
12 22 3.17141004052689857e-01
13 22 3.47944416087374309e-01
14 22 3.78741966263854202e-01
15 22 4.09504260029026068e-01
16 22 4.40201239414404255e-01
17 22 4.70802259171843540e-01
18 22 5.01276168469629302e-01
19 22 5.31591397820373124e-01
20 22 5.61716050849542792e-01
21 22 5.91618000452332260e-01
22 22 6.21264988827905817e-01
23 22 6.50624730824836628e-01
24 22 6.79665019980749019e-01
25 22 7.08353836593775599e-01
26 22 7.36659457124325234e-01
27 22 7.64550564193643534e-01
28 22 7.91996356421507675e-01
29 22 8.18966657329662229e-01
30 22 8.45432022530872795e-01
31 22 8.71363844425929512e-01
32 22 8.96734453642864748e-01
33 22 9.21517216473968559e-01
34 22 9.45686627596758478e-01
35 22 9.69218397404513210e-01
36 22 9.92089533319797656e-01
37 22 1.01427841451989553e+00
38 22 1.03576485956548314e+00
39 22 1.05653018649210462e+00
40 22 1.07655726499721194e+00
41 22 1.09583056043243232e+00
42 22 1.11433616939010083e+00
43 22 1.13206184675392474e+00
44 22 1.14899702416449334e+00
45 22 1.16513281993008433e+00
46 22 1.18046204049085213e+00
47 22 1.19497917361862016e+00
48 22 1.20868037360454861e+00
49 22 1.22156343875165785e+00
50 22 1.23362778154814801e+00
51 22 1.24487439194980665e+00
52 22 1.25530579424520816e+00
53 22 1.26492599801552097e+00
54 22 1.27374044373132578e+00
55 22 1.28175594355199052e+00
56 22 1.28898061790871576e+00
57 22 1.29542382846083304e+00
58 22 1.30109610801636832e+00
59 22 1.30600908800289917e+00
60 22 1.31017542406361520e+00
61 22 1.31360872033701503e+00
62 22 1.31632345295722075e+00
63 22 1.31833489328624287e+00
64 22 1.31965903136028873e+00
65 22 1.32031250000000022e+00
66 22 1.32031250000000000e+00
1 23 0.00000000000000000e+00
2 23 1.48280233276952261e-02
3 23 4.46100010425165075e-02
4 23 7.46339801435299821e-02
5 23 1.04879816472479348e-01
6 23 1.35326262961103921e-01
7 23 1.65950985387148836e-01
8 23 1.96730583872502973e-01
9 23 2.27640620328690507e-01
10 23 2.58655652017713789e-01
11 23 2.89749271354348803e-01
12 23 3.20894152029644775e-01
13 23 3.52062101484858059e-01
14 23 3.83224119710763700e-01
15 23 4.14350464289724607e-01
16 23 4.45410721537651655e-01
17 23 4.76373883540741061e-01
18 23 5.07208430818382405e-01
19 23 5.37882420279785944e-01
20 23 5.68363578078531440e-01
21 23 5.98619396907389412e-01
22 23 6.28617237216401836e-01
23 23 6.58324431781343700e-01
24 23 6.87708392998272688e-01
25 23 7.16736722233938695e-01
26 23 7.45377320522246145e-01
27 23 7.73598499864574296e-01
28 23 8.01369094367324397e-01
29 23 8.28658570434155139e-01
30 23 8.55437135223545697e-01
31 23 8.81675842584816238e-01
32 23 9.07346695697809791e-01
33 23 9.32422745663009644e-01
34 23 9.56878185319796959e-01
35 23 9.80688437610483854e-01
36 23 1.00383023785612657e+00
37 23 1.02628170936628482e+00
38 23 1.04802243186803334e+00
39 23 1.06903350230857930e+00
40 23 1.08929758765990070e+00
41 23 1.10879896943163292e+00
42 23 1.12752357967874106e+00
43 23 1.14545902837231450e+00
44 23 1.16259462208359965e+00
45 23 1.17892137401209718e+00
46 23 1.19443200546707540e+00
47 23 1.20912093898688799e+00
48 23 1.22298428335134801e+00
49 23 1.23601981080789058e+00
50 23 1.24822692689191306e+00
51 23 1.25960663327465627e+00
52 23 1.27016148411793250e+00
53 23 1.27989553645357446e+00
54 23 1.28881429513643031e+00
55 23 1.29692465294313819e+00
56 23 1.30423482640467703e+00
57 23 1.31075428796924509e+00
58 23 1.31649369509348513e+00
59 23 1.32146481685500450e+00
60 23 1.32568045866791850e+00
61 23 1.32915438566644717e+00
62 23 1.33190124529990972e+00
63 23 1.33393648965649425e+00
64 23 1.33527629800360570e+00
65 23 1.33593750000000000e+00
66 23 1.33593750000000000e+00
1 24 0.00000000000000000e+00
2 24 1.50014505011185628e-02
3 24 4.51317554406745897e-02
4 24 7.55068921919923308e-02
5 24 1.06106480992625291e-01
6 24 1.36909026270590539e-01
7 24 1.67891932584659342e-01
8 24 1.99031526373935758e-01
9 24 2.30303083724347657e-01
10 24 2.61680864322014539e-01
11 24 2.93138151721066331e-01
12 24 3.24647300006599693e-01
13 24 3.56179786882341753e-01
14 24 3.87706273157673253e-01
15 24 4.19196668550423146e-01
16 24 4.50620203660899055e-01
17 24 4.81945507909638637e-01
18 24 5.13140693167135398e-01
19 24 5.44173442739198654e-01
20 24 5.75011105307520087e-01
21 24 6.05620793362446563e-01
22 24 6.35969485604897744e-01
23 24 6.66024132737850771e-01
24 24 6.95751766015796469e-01
25 24 7.25119607874101679e-01
26 24 7.54095183920167167e-01
27 24 7.82646435535504947e-01
28 24 8.10741832313141120e-01
29 24 8.38350483538648050e-01
30 24 8.65442247916218710e-01
31 24 8.91987840743702964e-01
32 24 9.17958937752754944e-01
33 24 9.43328274852050841e-01
34 24 9.68069743042835551e-01
35 24 9.92158477816454498e-01
36 24 1.01557094239245549e+00
37 24 1.03828500421267411e+00
38 24 1.06028000417058355e+00
39 24 1.08153681812505376e+00
40 24 1.10203791032258946e+00
41 24 1.12176737843083330e+00
42 24 1.14071098996738129e+00
43 24 1.15885620999070427e+00
44 24 1.17619222000270596e+00
45 24 1.19270992809411003e+00
46 24 1.20840197044329845e+00
47 24 1.22326270435515583e+00
48 24 1.23728819309814742e+00
49 24 1.25047618286412332e+00
50 24 1.26282607223567811e+00
51 24 1.27433887459950634e+00
52 24 1.28501717399065685e+00
53 24 1.29486507489162816e+00
54 24 1.30388814654153484e+00
55 24 1.31209336233428608e+00
56 24 1.31948903490063829e+00
57 24 1.32608474747765759e+00
58 24 1.33189128217060193e+00
59 24 1.33692054570710983e+00
60 24 1.34118549327222158e+00
61 24 1.34470005099587930e+00
62 24 1.34747903764259869e+00
63 24 1.34953808602674563e+00
64 24 1.35089356464692290e+00
65 24 1.35156250000000000e+00
66 24 1.35156250000000000e+00
1 25 0.00000000000000000e+00
2 25 1.51748776745419013e-02
3 25 4.56535098388326788e-02
4 25 7.63798042404546657e-02
5 25 1.07333145512771247e-01
6 25 1.38491789580077129e-01
7 25 1.69832879782169849e-01
8 25 2.01332468875368570e-01
9 25 2.32965547120004862e-01
10 25 2.64706076626315290e-01
11 25 2.96527032087783859e-01
12 25 3.28400447983554611e-01
13 25 3.60297472279825448e-01
14 25 3.92188426604582752e-01
15 25 4.24042872811121740e-01
16 25 4.55829685784146454e-01
17 25 4.87517132278536158e-01
18 25 5.19072955515888390e-01
19 25 5.50464465198611252e-01
20 25 5.81658632536508735e-01
21 25 6.12622189817503715e-01
22 25 6.43321733993393763e-01
23 25 6.73723833694357621e-01
24 25 7.03795139033320138e-01
25 25 7.33502493514264775e-01
26 25 7.62813047318088078e-01
27 25 7.91694371206435710e-01
28 25 8.20114570258957731e-01
29 25 8.48042396643141072e-01
30 25 8.75447360608891834e-01
31 25 9.02299838902589690e-01
32 25 9.28571179807700098e-01
33 25 9.54233804041092037e-01
34 25 9.79261300765874254e-01
35 25 1.00362851802242514e+00
36 25 1.02731164692878463e+00
37 25 1.05028829905906340e+00
38 25 1.07253757647313352e+00
39 25 1.09404013394152821e+00
40 25 1.11477823298527823e+00
41 25 1.13473578743003367e+00
42 25 1.15389840025602153e+00
43 25 1.17225339160909403e+00
44 25 1.18978981792181249e+00
45 25 1.20649848217612288e+00
46 25 1.22237193541952149e+00
47 25 1.23740446972342344e+00
48 25 1.25159210284494682e+00
49 25 1.26493255492035606e+00
50 25 1.27742521757944316e+00
51 25 1.28907111592435619e+00
52 25 1.29987286386338097e+00
53 25 1.30983461332968143e+00
54 25 1.31896199794663938e+00
55 25 1.32726207172543398e+00
56 25 1.33474324339659933e+00
57 25 1.34141520698606986e+00
58 25 1.34728886924771873e+00
59 25 1.35237627455921539e+00
60 25 1.35669052787652444e+00
61 25 1.36024571632531144e+00
62 25 1.36305682998528788e+00
63 25 1.36513968239699679e+00
64 25 1.36651083129023987e+00
65 25 1.36718750000000022e+00
66 25 1.36718750000000000e+00
1 26 0.00000000000000000e+00
2 26 1.53483048479652363e-02
3 26 4.61752642369907748e-02
4 26 7.72527162889170144e-02
5 26 1.08559810032917217e-01
6 26 1.40074552889563719e-01
7 26 1.71773826979680383e-01
8 26 2.03633411376801354e-01
9 26 2.35628010515662040e-01
10 26 2.67731288930615985e-01
11 26 2.99915912454501388e-01
12 26 3.32153595960509529e-01
13 26 3.64415157677309198e-01
14 26 3.96670580051492250e-01
15 26 4.28889077071820279e-01
16 26 4.61039167907393799e-01
17 26 4.93088756647433790e-01
18 26 5.25005217864641383e-01
19 26 5.56755487658023962e-01
20 26 5.88306159765497383e-01
21 26 6.19623586272560867e-01
22 26 6.50673982381889671e-01
23 26 6.81423534650864582e-01
24 26 7.11838512050843697e-01
25 26 7.41885379154427871e-01
26 26 7.71530910716009100e-01
27 26 8.00742306877366472e-01
28 26 8.29487308204774565e-01
29 26 8.57734309747634094e-01
30 26 8.85452473301564846e-01
31 26 9.12611837061476527e-01
32 26 9.39183421862645251e-01
33 26 9.65139333230133123e-01
34 26 9.90452858488912957e-01
35 26 1.01509855822839556e+00
36 26 1.03905235146511354e+00
37 26 1.06229159390545269e+00
38 26 1.08479514877568350e+00
39 26 1.10654344975800289e+00
40 26 1.12751855564796721e+00
41 26 1.14770419642923427e+00
42 26 1.16708581054466176e+00
43 26 1.18565057322748357e+00
44 26 1.20338741584091902e+00
45 26 1.22028703625813595e+00
46 26 1.23634190039574454e+00
47 26 1.25154623509169105e+00
48 26 1.26589601259174622e+00
49 26 1.27938892697658857e+00
50 26 1.29202436292320799e+00
51 26 1.30380335724920604e+00
52 26 1.31472855373610553e+00
53 26 1.32480415176773514e+00
54 26 1.33403584935174369e+00
55 26 1.34243078111658187e+00
56 26 1.34999745189256037e+00
57 26 1.35674566649448192e+00
58 26 1.36268645632483576e+00
59 26 1.36783200341132094e+00
60 26 1.37219556248082752e+00
61 26 1.37579138165474357e+00
62 26 1.37863462232797707e+00
63 26 1.38074127876724817e+00
64 26 1.38212809793355684e+00
65 26 1.38281250000000022e+00
66 26 1.38281250000000000e+00
1 27 0.00000000000000000e+00
2 27 1.55217320213885714e-02
3 27 4.66970186351488639e-02
4 27 7.81256283373793631e-02
5 27 1.09786474553063160e-01
6 27 1.41657316199050337e-01
7 27 1.73714774177190917e-01
8 27 2.05934353878234111e-01
9 27 2.38290473911319273e-01
10 27 2.70756501234916735e-01
11 27 3.03304792821218916e-01
12 27 3.35906743937464447e-01
13 27 3.68532843074792948e-01
14 27 4.01152733498401803e-01
15 27 4.33735281332518763e-01
16 27 4.66248650030641199e-01
17 27 4.98660381016331367e-01
18 27 5.30937480213394375e-01
19 27 5.63046510117436672e-01
20 27 5.94953686994486142e-01
21 27 6.26624982727618018e-01
22 27 6.58026230770385689e-01
23 27 6.89123235607371543e-01
24 27 7.19881885068367477e-01
25 27 7.50268264794590967e-01
26 27 7.80248774113930121e-01
27 27 8.09790242548297234e-01
28 27 8.38860046150591177e-01
29 27 8.67426222852127116e-01
30 27 8.95457585994237859e-01
31 27 9.22923835220363364e-01
32 27 9.49795663917590294e-01
33 27 9.76044862419174208e-01
34 27 1.00164441621195133e+00
35 27 1.02656859843436621e+00
36 27 1.05079305600144246e+00
37 27 1.07429488875184198e+00
38 27 1.09705272107823371e+00
39 27 1.11904676557447758e+00
40 27 1.14025887831065598e+00
41 27 1.16067260542843464e+00
42 27 1.18027322083330199e+00
43 27 1.19904775484587334e+00
44 27 1.21698501376002555e+00
45 27 1.23407559034014880e+00
46 27 1.25031186537196759e+00
47 27 1.26568800045995866e+00
48 27 1.28019992233854563e+00
49 27 1.29384529903282153e+00
50 27 1.30662350826697304e+00
51 27 1.31853559857405589e+00
52 27 1.32958424360882987e+00
53 27 1.33977369020578885e+00
54 27 1.34910970075684822e+00
55 27 1.35759949050772977e+00
56 27 1.36525166038852164e+00
57 27 1.37207612600289419e+00
58 27 1.37808404340195256e+00
59 27 1.38328773226342627e+00
60 27 1.38770059708513060e+00
61 27 1.39133704698417593e+00
62 27 1.39421241467066626e+00
63 27 1.39634287513749955e+00
64 27 1.39774536457687404e+00
65 27 1.39843750000000022e+00
66 27 1.39843749999999978e+00
1 28 0.00000000000000000e+00
2 28 1.56951591948119064e-02
3 28 4.72187730333069530e-02
4 28 7.89985403858416840e-02
5 28 1.11013139073209102e-01
6 28 1.43240079508536899e-01
7 28 1.75655721374701423e-01
8 28 2.08235296379666895e-01
9 28 2.40952937306976450e-01
10 28 2.73781713539217486e-01
11 28 3.06693673187936444e-01
12 28 3.39659891914419365e-01
13 28 3.72650528472276699e-01
14 28 4.05634886945311246e-01
15 28 4.38581485593217246e-01
16 28 4.71458132153888543e-01
17 28 5.04232005385228943e-01
18 28 5.36869742562147367e-01
19 28 5.69337532576849381e-01
20 28 6.01601214223474900e-01
21 28 6.33626379182675281e-01
22 28 6.65378479158881708e-01
23 28 6.96822936563878503e-01
24 28 7.27925258085891147e-01
25 28 7.58651150434754062e-01
26 28 7.88966637511851032e-01
27 28 8.18838178219227886e-01
28 28 8.48232784096407899e-01
29 28 8.77118135956620137e-01
30 28 9.05462698686910983e-01
31 28 9.33235833379250090e-01
32 28 9.60407905972535447e-01
33 28 9.86950391608215183e-01
34 28 1.01283597393498992e+00
35 28 1.03803863864033685e+00
36 28 1.06253376053777138e+00
37 28 1.08629818359823127e+00
38 28 1.10931029338078391e+00
39 28 1.13155008139095203e+00
40 28 1.15299920097334496e+00
41 28 1.17364101442763502e+00
42 28 1.19346063112194223e+00
43 28 1.21244493646426310e+00
44 28 1.23058261167913208e+00
45 28 1.24786414442216143e+00
46 28 1.26428183034819042e+00
47 28 1.27982976582822627e+00
48 28 1.29450383208534503e+00
49 28 1.30830167108905426e+00
50 28 1.32122265361073810e+00
51 28 1.33326783989890596e+00
52 28 1.34443993348155444e+00
53 28 1.35474322864384211e+00
54 28 1.36418355216195275e+00
55 28 1.37276819989887744e+00
56 28 1.38050586888448268e+00
57 28 1.38740658551130647e+00
58 28 1.39348163047906937e+00
59 28 1.39874346111553161e+00
60 28 1.40320563168943391e+00
61 28 1.40688271231360829e+00
62 28 1.40979020701335522e+00
63 28 1.41194447150775115e+00
64 28 1.41336263122019079e+00
65 28 1.41406250000000022e+00
66 28 1.41406249999999956e+00
1 29 0.00000000000000000e+00
2 29 1.58685863682352414e-02
3 29 4.77405274314650421e-02
4 29 7.98714524343040189e-02
5 29 1.12239803593355045e-01
6 29 1.44822842818023462e-01
7 29 1.77596668572211958e-01
8 29 2.10536238881099652e-01
9 29 2.43615400702633655e-01
10 29 2.76806925843518237e-01
11 29 3.10082553554654028e-01
12 29 3.43413039891374283e-01
13 29 3.76768213869760449e-01
14 29 4.10117040392220800e-01
15 29 4.43427689853915785e-01
16 29 4.76667614277135887e-01
17 29 5.09803629754126519e-01
18 29 5.42802004910900360e-01
19 29 5.75628555036262091e-01
20 29 6.08248741452463659e-01
21 29 6.40627775637732544e-01
22 29 6.72730727547377505e-01
23 29 7.04522637520385464e-01
24 29 7.35968631103414705e-01
25 29 7.67034036074917047e-01
26 29 7.97684500909772054e-01
27 29 8.27886113890158537e-01
28 29 8.57605522042224511e-01
29 29 8.86810049061113159e-01
30 29 9.15467811379584107e-01
31 29 9.43547831538136816e-01
32 29 9.71020148027480490e-01
33 29 9.97855920797256157e-01
34 29 1.02402753165802851e+00
35 29 1.04950867884630750e+00
36 29 1.07427446507410029e+00
37 29 1.09830147844462034e+00
38 29 1.12156786568333389e+00
39 29 1.14405339720742649e+00
40 29 1.16573952363603395e+00
41 29 1.18660942342683540e+00
42 29 1.20664804141058246e+00
43 29 1.22584211808265264e+00
44 29 1.24418020959823861e+00
45 29 1.26165269850417427e+00
46 29 1.27825179532441346e+00
47 29 1.29397153119649388e+00
48 29 1.30880774183214443e+00
49 29 1.32275804314528678e+00
50 29 1.33582179895450315e+00
51 29 1.34800008122375559e+00
52 29 1.35929562335427878e+00
53 29 1.36971276708189582e+00
54 29 1.37925740356705728e+00
55 29 1.38793690929002511e+00
56 29 1.39576007738044372e+00
57 29 1.40273704501971874e+00
58 29 1.40887921755618617e+00
59 29 1.41419918996763694e+00
60 29 1.41871066629373699e+00
61 29 1.42242837764304020e+00
62 29 1.42536799935604397e+00
63 29 1.42754606787800231e+00
64 29 1.42897989786350799e+00
65 29 1.42968750000000022e+00
66 29 1.42968749999999933e+00
1 30 0.00000000000000000e+00
2 30 1.60420135416585764e-02
3 30 4.82622818296231312e-02
4 30 8.07443644827663676e-02
5 30 1.13466468113501001e-01
6 30 1.46405606127510080e-01
7 30 1.79537615769722464e-01
8 30 2.12837181382532437e-01
9 30 2.46277864098290861e-01
10 30 2.79832138147818987e-01
11 30 3.13471433921371612e-01
12 30 3.47166187868329201e-01
13 30 3.80885899267244199e-01
14 30 4.14599193839130353e-01
15 30 4.48273894114614324e-01
16 30 4.81877096400383231e-01
17 30 5.15375254123024096e-01
18 30 5.48734267259653352e-01
19 30 5.81919577495674800e-01
20 30 6.14896268681452418e-01
21 30 6.47629172092789807e-01
22 30 6.80082975935873413e-01
23 30 7.12222338476892425e-01
24 30 7.44012004120938375e-01
25 30 7.75416921715080143e-01
26 30 8.06402364307692965e-01
27 30 8.36934049561089410e-01
28 30 8.66978259988041233e-01
29 30 8.96501962165606070e-01
30 30 9.25472924072257119e-01
31 30 9.53859829697023542e-01
32 30 9.81632390082425754e-01
33 30 1.00876144998629713e+00
34 30 1.03521908938106710e+00
35 30 1.06097871905227814e+00
36 30 1.08601516961042921e+00
37 30 1.11030477329100963e+00
38 30 1.13382543798588387e+00
39 30 1.15655671302390095e+00
40 30 1.17847984629872293e+00
41 30 1.19957783242603577e+00
42 30 1.21983545169922269e+00
43 30 1.23923929970104241e+00
44 30 1.25777780751734491e+00
45 30 1.27544125258618712e+00
46 30 1.29222176030063673e+00
47 30 1.30811329656476194e+00
48 30 1.32311165157894361e+00
49 30 1.33721441520151951e+00
50 30 1.35042094429826820e+00
51 30 1.36273232254860521e+00
52 30 1.37415131322700312e+00
53 30 1.38468230551994909e+00
54 30 1.39433125497216159e+00
55 30 1.40310561868117301e+00
56 30 1.41101428587640476e+00
57 30 1.41806750452813102e+00
58 30 1.42427680463330320e+00
59 30 1.42965491881974205e+00
60 30 1.43421570089804007e+00
61 30 1.43797404297247233e+00
62 30 1.44094579169873294e+00
63 30 1.44314766424825391e+00
64 30 1.44459716450682496e+00
65 30 1.44531250000000022e+00
66 30 1.44531249999999933e+00
1 31 0.00000000000000000e+00
2 31 1.62154407150819115e-02
3 31 4.87840362277812203e-02
4 31 8.16172765312287163e-02
5 31 1.14693132633646971e-01
6 31 1.47988369436996697e-01
7 31 1.81478562967232998e-01
8 31 2.15138123883965221e-01
9 31 2.48940327493948094e-01
10 31 2.82857350452119738e-01
11 31 3.16860314288089140e-01
12 31 3.50919335845284119e-01
13 31 3.85003584664728005e-01
14 31 4.19081347286039962e-01
15 31 4.53120098375312752e-01
16 31 4.87086578523630631e-01
17 31 5.20946878491921672e-01
18 31 5.54666529608406345e-01
19 31 5.88210599955087399e-01
20 31 6.21543795910441066e-01
21 31 6.54630568547846958e-01
22 31 6.87435224324369321e-01
23 31 7.19922039433399275e-01
24 31 7.52055377138461933e-01
25 31 7.83799807355243128e-01
26 31 8.15120227705614098e-01
27 31 8.45981985232020173e-01
28 31 8.76350997933857845e-01
29 31 9.06193875270099092e-01
30 31 9.35478036764930132e-01
31 31 9.64171827855910379e-01
32 31 9.92244632137370908e-01
33 31 1.01966697917533833e+00
34 31 1.04641064710410570e+00
35 31 1.07244875925824878e+00
36 31 1.09775587414675813e+00
37 31 1.12230806813739892e+00
38 31 1.14608301028843385e+00
39 31 1.16906002884037541e+00
40 31 1.19122016896141192e+00
41 31 1.21254624142523615e+00
42 31 1.23302286198786293e+00
43 31 1.25263648131943195e+00
44 31 1.27137540543645122e+00
45 31 1.28922980666819997e+00
46 31 1.30619172527686001e+00
47 31 1.32225506193302955e+00
48 31 1.33741556132574302e+00
49 31 1.35167078725775203e+00
50 31 1.36502008964203325e+00
51 31 1.37746456387345506e+00
52 31 1.38900700309972747e+00
53 31 1.39965184395800279e+00
54 31 1.40940510637726590e+00
55 31 1.41827432807232068e+00
56 31 1.42626849437236602e+00
57 31 1.43339796403654329e+00
58 31 1.43967439171042022e+00
59 31 1.44511064767184738e+00
60 31 1.44972073550234315e+00
61 31 1.45351970830190447e+00
62 31 1.45652358404142213e+00
63 31 1.45874926061850529e+00
64 31 1.46021443115014193e+00
65 31 1.46093750000000022e+00
66 31 1.46093749999999933e+00
1 32 0.00000000000000000e+00
2 32 1.63888678885052499e-02
3 32 4.93057906259393094e-02
4 32 8.24901885796910511e-02
5 32 1.15919797153792942e-01
6 32 1.49571132746483315e-01
7 32 1.83419510164743504e-01
8 32 2.17439066385398005e-01
9 32 2.51602790889605299e-01
10 32 2.85882562756420489e-01
11 32 3.20249194654806668e-01
12 32 3.54672483822239037e-01
13 32 3.89121270062211699e-01
14 32 4.23563500732949516e-01
15 32 4.57966302636011291e-01
16 32 4.92296060646878031e-01
17 32 5.26518502860819249e-01
18 32 5.60598791957159337e-01
19 32 5.94501622414500108e-01
20 32 6.28191323139429714e-01
21 32 6.61631965002903999e-01
22 32 6.94787472712865228e-01
23 32 7.27621740389906346e-01
24 32 7.60098750155985714e-01
25 32 7.92182692995406113e-01
26 32 8.23838091103535008e-01
27 32 8.55029920902950824e-01
28 32 8.85723735879674567e-01
29 32 9.15885788374592225e-01
30 32 9.45483149457603145e-01
31 32 9.74483826014797105e-01
32 32 1.00285687419231606e+00
33 32 1.03057250836437930e+00
34 32 1.05760220482714429e+00
35 32 1.08391879946421943e+00
36 32 1.10949657868308704e+00
37 32 1.13431136298378843e+00
38 32 1.15834058259098405e+00
39 32 1.18156334465684987e+00
40 32 1.20396049162410068e+00
41 32 1.22551465042443652e+00
42 32 1.24621027227650338e+00
43 32 1.26603366293782171e+00
44 32 1.28497300335555775e+00
45 32 1.30301836075021260e+00
46 32 1.32016169025308305e+00
47 32 1.33639682730129716e+00
48 32 1.35171947107254242e+00
49 32 1.36612715931398454e+00
50 32 1.37961923498579830e+00
51 32 1.39219680519830513e+00
52 32 1.40386269297245181e+00
53 32 1.41462138239605606e+00
54 32 1.42447895778237021e+00
55 32 1.43344303746346835e+00
56 32 1.44152270286832707e+00
57 32 1.44872842354495557e+00
58 32 1.45507197878753680e+00
59 32 1.46056637652395271e+00
60 32 1.46522577010664623e+00
61 32 1.46906537363133638e+00
62 32 1.47210137638411132e+00
63 32 1.47435085698875690e+00
64 32 1.47583169779345891e+00
65 32 1.47656250000000044e+00
66 32 1.47656249999999933e+00
1 33 0.00000000000000000e+00
2 33 1.65622950619285850e-02
3 33 4.98275450240973916e-02
4 33 8.33631006281533860e-02
5 33 1.17146461673938898e-01
6 33 1.51153896055969933e-01
7 33 1.85360457362254011e-01
8 33 2.19740008886830818e-01
9 33 2.54265254285262476e-01
10 33 2.88907775060721239e-01
11 33 3.23638075021524196e-01
12 33 3.58425631799194011e-01
13 33 3.93238955459695394e-01
14 33 4.28045654179859014e-01
15 33 4.62812506896709885e-01
16 33 4.97505542770125431e-01
17 33 5.32090127229716825e-01
18 33 5.66531054305912329e-01
19 33 6.00792644873912818e-01
20 33 6.34838850368418472e-01
21 33 6.68633361457961262e-01
22 33 7.02139721101361025e-01
23 33 7.35321441346413196e-01
24 33 7.68142123173509384e-01
25 33 8.00565578635568986e-01
26 33 8.32555954501456030e-01
27 33 8.64077856573881475e-01
28 33 8.95096473825491290e-01
29 33 9.25577701479085357e-01
30 33 9.55488262150276269e-01
31 33 9.84795824173683942e-01
32 33 1.01346911624726133e+00
33 33 1.04147803755342050e+00
34 33 1.06879376255018288e+00
35 33 1.09538883967019007e+00
36 33 1.12123728321941596e+00
37 33 1.14631465783017772e+00
38 33 1.17059815489353425e+00
39 33 1.19406666047332455e+00
40 33 1.21670081428678967e+00
41 33 1.23848305942363690e+00
42 33 1.25939768256514362e+00
43 33 1.27943084455621126e+00
44 33 1.29857060127466406e+00
45 33 1.31680691483222523e+00
46 33 1.33413165522930632e+00
47 33 1.35053859266956500e+00
48 33 1.36602338081934160e+00
49 33 1.38058353137021705e+00
50 33 1.39421838032956313e+00
51 33 1.40692904652315498e+00
52 33 1.41871838284517637e+00
53 33 1.42959092083410955e+00
54 33 1.43955280918747452e+00
55 33 1.44861174685461624e+00
56 33 1.45677691136428811e+00
57 33 1.46405888305336762e+00
58 33 1.47046956586465360e+00
59 33 1.47602210537605805e+00
60 33 1.48073080471094909e+00
61 33 1.48461103896076851e+00
62 33 1.48767916872680028e+00
63 33 1.48995245335900828e+00
64 33 1.49144896443677610e+00
65 33 1.49218750000000044e+00
66 33 1.49218749999999933e+00
1 34 0.00000000000000000e+00
2 34 1.67357222353519235e-02
3 34 5.03492994222554807e-02
4 34 8.42360126766157208e-02
5 34 1.18373126194084854e-01
6 34 1.52736659365456551e-01
7 34 1.87301404559764517e-01
8 34 2.22040951388263602e-01
9 34 2.56927717680919654e-01
10 34 2.91932987365021990e-01
11 34 3.27026955388241669e-01
12 34 3.62178779776148929e-01
13 34 3.97356640857179144e-01
14 34 4.32527807626768457e-01
15 34 4.67658711157408424e-01
16 34 5.02715024893372719e-01
17 34 5.37661751598614401e-01
18 34 5.72463316654665322e-01
19 34 6.07083667333325638e-01
20 34 6.41486377597407120e-01
21 34 6.75634757913018413e-01
22 34 7.09491969489856933e-01
23 34 7.43021142302920046e-01
24 34 7.76185496191033053e-01
25 34 8.08948464275731971e-01
26 34 8.41273817899376941e-01
27 34 8.73125792244812238e-01
28 34 9.04469211771307902e-01
29 34 9.35269614583578379e-01
30 34 9.65493374842949281e-01
31 34 9.95107822332570668e-01
32 34 1.02408135830220637e+00
33 34 1.05238356674246170e+00
34 34 1.07998532027322147e+00
35 34 1.10685887987616050e+00
36 34 1.13297798775574488e+00
37 34 1.15831795267656701e+00
38 34 1.18285572719608445e+00
39 34 1.20656997628979923e+00
40 34 1.22944113694947865e+00
41 34 1.25145146842283728e+00
42 34 1.27258509285378407e+00
43 34 1.29282802617460080e+00
44 34 1.31216819919377059e+00
45 34 1.33059546891423830e+00
46 34 1.34810162020552937e+00
47 34 1.36468035803783261e+00
48 34 1.38032729056614101e+00
49 34 1.39503990342644957e+00
50 34 1.40881752567332796e+00
51 34 1.42166128784800461e+00
52 34 1.43357407271790072e+00
53 34 1.44456045927216303e+00
54 34 1.45462666059257906e+00
55 34 1.46378045624576392e+00
56 34 1.47203111986024937e+00
57 34 1.47938934256177990e+00
58 34 1.48586715294177041e+00
59 34 1.49147783422816338e+00
60 34 1.49623583931525217e+00
61 34 1.50015670429020087e+00
62 34 1.50325696106948925e+00
63 34 1.50555404972925988e+00
64 34 1.50706623108009308e+00
65 34 1.50781250000000044e+00
66 34 1.50781249999999933e+00
1 35 0.00000000000000000e+00
2 35 1.69091494087752620e-02
3 35 5.08710538204135698e-02
4 35 8.51089247250780556e-02
5 35 1.19599790714230825e-01
6 35 1.54319422674943141e-01
7 35 1.89242351757275051e-01
8 35 2.24341893889696387e-01
9 35 2.59590181076576887e-01
10 35 2.94958199669322740e-01
11 35 3.30415835754959197e-01
12 35 3.65931927753103847e-01
13 35 4.01474326254662839e-01
14 35 4.37009961073678010e-01
15 35 4.72504915418106963e-01
16 35 5.07924507016620064e-01
17 35 5.43233375967511978e-01
18 35 5.78395579003418203e-01
19 35 6.13374689792738348e-01
20 35 6.48133904826395879e-01
21 35 6.82636154368075676e-01
22 35 7.16844217878352841e-01
23 35 7.50720843259427006e-01
24 35 7.84228869208556612e-01
25 35 8.17331349915894956e-01
26 35 8.49991681297297963e-01
27 35 8.82173727915742889e-01
28 35 9.13841949717124624e-01
29 35 9.44961527688071401e-01
30 35 9.75498487535622405e-01
31 35 1.00541982049145751e+00
32 35 1.03469360035715163e+00
33 35 1.06328909593150267e+00
34 35 1.09117687799625984e+00
35 35 1.11832892008213114e+00
36 35 1.14471869229207379e+00
37 35 1.17032124752295630e+00
38 35 1.19511329949863443e+00
39 35 1.21907329210627391e+00
40 35 1.24218145961216742e+00
41 35 1.26441987742203765e+00
42 35 1.28577250314242453e+00
43 35 1.30622520779299056e+00
44 35 1.32576579711287668e+00
45 35 1.34438402299625115e+00
46 35 1.36207158518175242e+00
47 35 1.37882212340610022e+00
48 35 1.39463120031294041e+00
49 35 1.40949627548268208e+00
50 35 1.42341667101709302e+00
51 35 1.43639352917285423e+00
52 35 1.44842976259062484e+00
53 35 1.45952999771021652e+00
54 35 1.46970051199768359e+00
55 35 1.47894916563691181e+00
56 35 1.48728532835621063e+00
57 35 1.49471980207019217e+00
58 35 1.50126474001888699e+00
59 35 1.50693356308026871e+00
60 35 1.51174087391955547e+00
61 35 1.51570236961963278e+00
62 35 1.51883475341217822e+00
63 35 1.52115564609951126e+00
64 35 1.52268349772341027e+00
65 35 1.52343750000000044e+00
66 35 1.52343749999999933e+00
1 36 0.00000000000000000e+00
2 36 1.70825765821985970e-02
3 36 5.13928082185716589e-02
4 36 8.59818367735403905e-02
5 36 1.20826455234376767e-01
6 36 1.55902185984429731e-01
7 36 1.91183298954785585e-01
8 36 2.26642836391129171e-01
9 36 2.62252644472234064e-01
10 36 2.97983411973623435e-01
11 36 3.33804716121676781e-01
12 36 3.69685075730058710e-01
13 36 4.05592011652146645e-01
14 36 4.41492114520587509e-01
15 36 4.77351119678805447e-01
16 36 5.13133989139867408e-01
17 36 5.48805000336409554e-01
18 36 5.84327841352171196e-01
19 36 6.19665712252151057e-01
20 36 6.54781432055384416e-01
21 36 6.89637550823132828e-01
22 36 7.24196466266848859e-01
23 36 7.58420544215933967e-01
24 36 7.92272242226080281e-01
25 36 8.25714235556058052e-01
26 36 8.58709544695218985e-01
27 36 8.91221663586673540e-01
28 36 9.23214687662941236e-01
29 36 9.54653440792564534e-01
30 36 9.85503600228295529e-01
31 36 1.01573181865034434e+00
32 36 1.04530584241209690e+00
33 36 1.07419462512054364e+00
34 36 1.10236843571929843e+00
35 36 1.12979896028810178e+00
36 36 1.15645939682840271e+00
37 36 1.18232454236934559e+00
38 36 1.20737087180118441e+00
39 36 1.23157660792274837e+00
40 36 1.25492178227485618e+00
41 36 1.27738828642123825e+00
42 36 1.29895991343106454e+00
43 36 1.31962238941137988e+00
44 36 1.33936339503198276e+00
45 36 1.35817257707826400e+00
46 36 1.37604155015797547e+00
47 36 1.39296388877436783e+00
48 36 1.40893511005973981e+00
49 36 1.42395264753891482e+00
50 36 1.43801581636085829e+00
51 36 1.45112577049770386e+00
52 36 1.46328545246334940e+00
53 36 1.47449953614826978e+00
54 36 1.48477436340278790e+00
55 36 1.49411787502805971e+00
56 36 1.50253953685217190e+00
57 36 1.51005026157860422e+00
58 36 1.51666232709600379e+00
59 36 1.52238929193237404e+00
60 36 1.52724590852385878e+00
61 36 1.53124803494906492e+00
62 36 1.53441254575486696e+00
63 36 1.53675724246976286e+00
64 36 1.53830076436672725e+00
65 36 1.53906250000000022e+00
66 36 1.53906249999999933e+00
1 37 0.00000000000000000e+00
2 37 1.72560037556219320e-02
3 37 5.19145626167297480e-02
4 37 8.68547488220027392e-02
5 37 1.22053119754522724e-01
6 37 1.57484949293916349e-01
7 37 1.93124246152296092e-01
8 37 2.28943778892561928e-01
9 37 2.64915107867891297e-01
10 37 3.01008624277924242e-01
11 37 3.37193596488394309e-01
12 37 3.73438223707013628e-01
13 37 4.09709697049630339e-01
14 37 4.45974267967497062e-01
15 37 4.82197323939504041e-01
16 37 5.18343471263114863e-01
17 37 5.54376624705307131e-01
18 37 5.90260103700924188e-01
19 37 6.25956734711563767e-01
20 37 6.61428959284373175e-01
21 37 6.96638947278189979e-01
22 37 7.31548714655344767e-01
23 37 7.66120245172440928e-01
24 37 8.00315615243604062e-01
25 37 8.34097121196221036e-01
26 37 8.67427408093140007e-01
27 37 9.00269599257604303e-01
28 37 9.32587425608757958e-01
29 37 9.64345353897057556e-01
30 37 9.95508712920968653e-01
31 37 1.02604381680923096e+00
32 37 1.05591808446704216e+00
33 37 1.08510015430958484e+00
34 37 1.11355999344233703e+00
35 37 1.14126900049407243e+00
36 37 1.16820010136473162e+00
37 37 1.19432783721573488e+00
38 37 1.21962844410373461e+00
39 37 1.24407992373922283e+00
40 37 1.26766210493754494e+00
41 37 1.29035669542043840e+00
42 37 1.31214732371970499e+00
43 37 1.33301957102976942e+00
44 37 1.35296099295108929e+00
45 37 1.37196113116027663e+00
46 37 1.39001151513419874e+00
47 37 1.40710565414263566e+00
48 37 1.42323901980653900e+00
49 37 1.43840901959514733e+00
50 37 1.45261496170462312e+00
51 37 1.46585801182255349e+00
52 37 1.47814114233607397e+00
53 37 1.48946907458632327e+00
54 37 1.49984821480789221e+00
55 37 1.50928658441920738e+00
56 37 1.51779374534813272e+00
57 37 1.52538072108701650e+00
58 37 1.53205991417312082e+00
59 37 1.53784502078447938e+00
60 37 1.54275094312816186e+00
61 37 1.54679370027849705e+00
62 37 1.54999033809755593e+00
63 37 1.55235883884001424e+00
64 37 1.55391803101004422e+00
65 37 1.55468750000000022e+00
66 37 1.55468749999999933e+00
1 38 0.00000000000000000e+00
2 38 1.74294309290452705e-02
3 38 5.24363170148878371e-02
4 38 8.77276608704650601e-02
5 38 1.23279784274668666e-01
6 38 1.59067712603402939e-01
7 38 1.95065193349806626e-01
8 38 2.31244721393994712e-01
9 38 2.67577571263548475e-01
10 38 3.04033836582224992e-01
11 38 3.40582476855111782e-01
12 38 3.77191371683968546e-01
13 38 4.13827382447114034e-01
14 38 4.50456421414406671e-01
15 38 4.87043528200202525e-01
16 38 5.23552953386362319e-01
17 38 5.59948249074204596e-01
18 38 5.96192366049677180e-01
19 38 6.32247757170976366e-01
20 38 6.68076486513361822e-01
21 38 7.03640343733247020e-01
22 38 7.38900963043840675e-01
23 38 7.73819946128948000e-01
24 38 8.08358988261127731e-01
25 38 8.42480006836384132e-01
26 38 8.76145271491061028e-01
27 38 9.09317534928535065e-01
28 38 9.41960163554574459e-01
29 38 9.74037267001550688e-01
30 38 1.00551382561364178e+00
31 38 1.03635581496811779e+00
32 38 1.06653032652198720e+00
33 38 1.09600568349862582e+00
34 38 1.12475155116537540e+00
35 38 1.15273904070004285e+00
36 38 1.17994080590106076e+00
37 38 1.20633113206212417e+00
38 38 1.23188601640628481e+00
39 38 1.25658323955569751e+00
40 38 1.28040242760023393e+00
41 38 1.30332510441963878e+00
42 38 1.32533473400834501e+00
43 38 1.34641675264815897e+00
44 38 1.36655859087019560e+00
45 38 1.38574968524228970e+00
46 38 1.40398148011042179e+00
47 38 1.42124741951090328e+00
48 38 1.43754292955333862e+00
49 38 1.45286539165137984e+00
50 38 1.46721410704838817e+00
51 38 1.48059025314740311e+00
52 38 1.49299683220879831e+00
53 38 1.50443861302437676e+00
54 38 1.51492206621299697e+00
55 38 1.52445529381035527e+00
56 38 1.53304795384409376e+00
57 38 1.54071118059542878e+00
58 38 1.54745750125023762e+00
59 38 1.55330074963658471e+00
60 38 1.55825597773246516e+00
61 38 1.56233936560792919e+00
62 38 1.56556813044024490e+00
63 38 1.56796043521026540e+00
64 38 1.56953529765336119e+00
65 38 1.57031250000000022e+00
66 38 1.57031249999999933e+00
1 39 0.00000000000000000e+00
2 39 1.76028581024686055e-02
3 39 5.29580714130459262e-02
4 39 8.86005729189273949e-02
5 39 1.24506448794814623e-01
6 39 1.60650475912889529e-01
7 39 1.97006140547317132e-01
8 39 2.33545663895427497e-01
9 39 2.70240034659205652e-01
10 39 3.07059048886525687e-01
11 39 3.43971357221829310e-01
12 39 3.80944519660923464e-01
13 39 4.17945067844597729e-01
14 39 4.54938574861316225e-01
15 39 4.91889732460901064e-01
16 39 5.28762435509609663e-01
17 39 5.65519873443102172e-01
18 39 6.02124628398430284e-01
19 39 6.38538779630389186e-01
20 39 6.74724013742350581e-01
21 39 7.10641740188304172e-01
22 39 7.46253211432336583e-01
23 39 7.81519647085454960e-01
24 39 8.16402361278651290e-01
25 39 8.50862892476547228e-01
26 39 8.84863134888982050e-01
27 39 9.18365470599465827e-01
28 39 9.51332901500391181e-01
29 39 9.83729180106043710e-01
30 39 1.01551893830631479e+00
31 39 1.04666781312700463e+00
32 39 1.07714256857693247e+00
33 39 1.10691121268766701e+00
34 39 1.13594310888841399e+00
35 39 1.16420908090601349e+00
36 39 1.19168151043738968e+00
37 39 1.21833442690851346e+00
38 39 1.24414358870883479e+00
39 39 1.26908655537217196e+00
40 39 1.29314275026292269e+00
41 39 1.31629351341883916e+00
42 39 1.33852214429698524e+00
43 39 1.35981393426654851e+00
44 39 1.38015618878930191e+00
45 39 1.39953823932430277e+00
46 39 1.41795144508664483e+00
47 39 1.43538918487917089e+00
48 39 1.45184683930013780e+00
49 39 1.46732176370761258e+00
50 39 1.48181325239215322e+00
51 39 1.49532249447225296e+00
52 39 1.50785252208152265e+00
53 39 1.51940815146243025e+00
54 39 1.52999591761810128e+00
55 39 1.53962400320150294e+00
56 39 1.54830216234005480e+00
57 39 1.55604164010384127e+00
58 39 1.56285508832735420e+00
59 39 1.56875647848869004e+00
60 39 1.57376101233676846e+00
61 39 1.57788503093736110e+00
62 39 1.58114592278293409e+00
63 39 1.58356203158051678e+00
64 39 1.58515256429667817e+00
65 39 1.58593750000000022e+00
66 39 1.58593749999999933e+00
1 40 0.00000000000000000e+00
2 40 1.77762852758919405e-02
3 40 5.34798258112040154e-02
4 40 8.94734849673897298e-02
5 40 1.25733113314960593e-01
6 40 1.62233239222376119e-01
7 40 1.98947087744827639e-01
8 40 2.35846606396860281e-01
9 40 2.72902498054862885e-01
10 40 3.10084261190826438e-01
11 40 3.47360237588546783e-01
12 40 3.84697667637878382e-01
13 40 4.22062753242081479e-01
14 40 4.59420728308225779e-01
15 40 4.96735936721599602e-01
16 40 5.33971917632857118e-01
17 40 5.71091497811999638e-01
18 40 6.08056890747183387e-01
19 40 6.44829802089801785e-01
20 40 6.81371540971339229e-01
21 40 7.17643136643361323e-01
22 40 7.53605459820832491e-01
23 40 7.89219348041961921e-01
24 40 8.24445734296175070e-01
25 40 8.59245778116710324e-01
26 40 8.93580998286903072e-01
27 40 9.27413406270396479e-01
28 40 9.60705639446207682e-01
29 40 9.93421093210536621e-01
30 40 1.02552405099898780e+00
31 40 1.05697981128589147e+00
32 40 1.08775481063187773e+00
33 40 1.11781674187670799e+00
34 40 1.14713466661145236e+00
35 40 1.17567912111198414e+00
36 40 1.20342221497371860e+00
37 40 1.23033772175490297e+00
38 40 1.25640116101138477e+00
39 40 1.28158987118864642e+00
40 40 1.30588307292561168e+00
41 40 1.32926192241803953e+00
42 40 1.35170955458562547e+00
43 40 1.37321111588493805e+00
44 40 1.39375378670840822e+00
45 40 1.41332679340631562e+00
46 40 1.43192141006286788e+00
47 40 1.44953095024743828e+00
48 40 1.46615074904693721e+00
49 40 1.48177813576384532e+00
50 40 1.49641239773591828e+00
51 40 1.51005473579710281e+00
52 40 1.52270821195424721e+00
53 40 1.53437768990048373e+00
54 40 1.54506976902320581e+00
55 40 1.55479271259265084e+00
56 40 1.56355637083601606e+00
57 40 1.57137209961225355e+00
58 40 1.57825267540447101e+00
59 40 1.58421220734079538e+00
60 40 1.58926604694107154e+00
61 40 1.59343069626679323e+00
62 40 1.59672371512562328e+00
63 40 1.59916362795076816e+00
64 40 1.60076983093999492e+00
65 40 1.60156250000000044e+00
66 40 1.60156249999999956e+00
1 41 0.00000000000000000e+00
2 41 1.79497124493152790e-02
3 41 5.40015802093620975e-02
4 41 9.03463970158520646e-02
5 41 1.26959777835106535e-01
6 41 1.63816002531862709e-01
7 41 2.00888034942338117e-01
8 41 2.38147548898293066e-01
9 41 2.75564961450520063e-01
10 41 3.13109473495127189e-01
11 41 3.50749117955264311e-01
12 41 3.88450815614833300e-01
13 41 4.26180438639565173e-01
14 41 4.63902881755135332e-01
15 41 5.01582140982298141e-01
16 41 5.39181399756104462e-01
17 41 5.76663122180897103e-01
18 41 6.13989153095936491e-01
19 41 6.51120824549214494e-01
20 41 6.88019068200327877e-01
21 41 7.24644533098418586e-01
22 41 7.60957708209328398e-01
23 41 7.96919048998468882e-01
24 41 8.32489107313698851e-01
25 41 8.67628663756873308e-01
26 41 9.02298861684823983e-01
27 41 9.36461341941327130e-01
28 41 9.70078377392024294e-01
29 41 1.00311300631502975e+00
30 41 1.03552916369166081e+00
31 41 1.06729180944477831e+00
32 41 1.09836705268682278e+00
33 41 1.12872227106574896e+00
34 41 1.15832622433449095e+00
35 41 1.18714916131795478e+00
36 41 1.21516291951004751e+00
37 41 1.24234101660129248e+00
38 41 1.26865873331393497e+00
39 41 1.29409318700512088e+00
40 41 1.31862339558830066e+00
41 41 1.34223033141723969e+00
42 41 1.36489696487426571e+00
43 41 1.38660829750332781e+00
44 41 1.40735138462751475e+00
45 41 1.42711534748832825e+00
46 41 1.44589137503909093e+00
47 41 1.46367271561570633e+00
48 41 1.48045465879373661e+00
49 41 1.49623450782007783e+00
50 41 1.51101154307968333e+00
51 41 1.52478697712195266e+00
52 41 1.53756390182697178e+00
53 41 1.54934722833853722e+00
54 41 1.56014362042831034e+00
55 41 1.56996142198379873e+00
56 41 1.57881057933197755e+00
57 41 1.58670255912066582e+00
58 41 1.59365026248158781e+00
59 41 1.59966793619290049e+00
60 41 1.60477108154537462e+00
61 41 1.60897636159622537e+00
62 41 1.61230150746831224e+00
63 41 1.61476522432101954e+00
64 41 1.61638709758331212e+00
65 41 1.61718750000000044e+00
66 41 1.61718749999999956e+00
1 42 0.00000000000000000e+00
2 42 1.81231396227386141e-02
3 42 5.45233346075201866e-02
4 42 9.12193090643143994e-02
5 42 1.28186442355252506e-01
6 42 1.65398765841349299e-01
7 42 2.02828982139848624e-01
8 42 2.40448491399725850e-01
9 42 2.78227424846177240e-01
10 42 3.16134685799427939e-01
11 42 3.54137998321981839e-01
12 42 3.92203963591788218e-01
13 42 4.30298124037048924e-01
14 42 4.68385035202044886e-01
15 42 5.06428345242996625e-01
16 42 5.44390881879351918e-01
17 42 5.82234746549794568e-01
18 42 6.19921415444689372e-01
19 42 6.57411847008627093e-01
20 42 6.94666595429316636e-01
21 42 7.31645929553475738e-01
22 42 7.68309956597824306e-01
23 42 8.04618749954975843e-01
24 42 8.40532480331222520e-01
25 42 8.76011549397036293e-01
26 42 9.11016725082745116e-01
27 42 9.45509277612257892e-01
28 42 9.79451115337840794e-01
29 42 1.01280491941952278e+00
30 42 1.04553427638433383e+00
31 42 1.07760380760366514e+00
32 42 1.10897929474176782e+00
33 42 1.13962780025479016e+00
34 42 1.16951778205752954e+00
35 42 1.19861920152392520e+00
36 42 1.22690362404637643e+00
37 42 1.25434431144768177e+00
38 42 1.28091630561648517e+00
39 42 1.30659650282159534e+00
40 42 1.33136371825098965e+00
41 42 1.35519874041644006e+00
42 42 1.37808437516290572e+00
43 42 1.40000547912171758e+00
44 42 1.42094898254662150e+00
45 42 1.44090390157034109e+00
46 42 1.45986134001531420e+00
47 42 1.47781448098397417e+00
48 42 1.49475856854053601e+00
49 42 1.51069087987631057e+00
50 42 1.52561068842344838e+00
51 42 1.53951921844680251e+00
52 42 1.55241959169969612e+00
53 42 1.56431676677659071e+00
54 42 1.57521747183341487e+00
55 42 1.58513013137494663e+00
56 42 1.59406478782793881e+00
57 42 1.60203301862907810e+00
58 42 1.60904784955870461e+00
59 42 1.61512366504500582e+00
60 42 1.62027611614967793e+00
61 42 1.62452202692565750e+00
62 42 1.62787929981100121e+00
63 42 1.63036682069127092e+00
64 42 1.63200436422662931e+00
65 42 1.63281250000000044e+00
66 42 1.63281249999999956e+00
1 43 0.00000000000000000e+00
2 43 1.82965667961619526e-02
3 43 5.50450890056782757e-02
4 43 9.20922211127767482e-02
5 43 1.29413106875398476e-01
6 43 1.66981529150835861e-01
7 43 2.04769929337359130e-01
8 43 2.42749433901158607e-01
9 43 2.80889888241834473e-01
10 43 3.19159898103728690e-01
11 43 3.57526878688699368e-01
12 43 3.95957111568743081e-01
13 43 4.34415809434532618e-01
14 43 4.72867188648954384e-01
15 43 5.11274549503695108e-01
16 43 5.49600364002599262e-01
17 43 5.87806370918692145e-01
18 43 6.25853677793442476e-01
19 43 6.63702869468039691e-01
20 43 7.01314122658305283e-01
21 43 7.38647326008533001e-01
22 43 7.75662204986320214e-01
23 43 8.12318450911482803e-01
24 43 8.48575853348746190e-01
25 43 8.84394435037199389e-01
26 43 9.19734588480666138e-01
27 43 9.54557213283188544e-01
28 43 9.88823853283657517e-01
29 43 1.02249683252401580e+00
30 43 1.05553938907700684e+00
31 43 1.08791580576255198e+00
32 43 1.11959153679671286e+00
33 43 1.15053332944383135e+00
34 43 1.18070933978056813e+00
35 43 1.21008924172989585e+00
36 43 1.23864432858270512e+00
37 43 1.26634760629407084e+00
38 43 1.29317387791903537e+00
39 43 1.31909981863806980e+00
40 43 1.34410404091367863e+00
41 43 1.36816714941564066e+00
42 43 1.39127178545154573e+00
43 43 1.41340266074010712e+00
44 43 1.43454658046572803e+00
45 43 1.45469245565235394e+00
46 43 1.47383130499153725e+00
47 43 1.49195624635224200e+00
48 43 1.50906247828733542e+00
49 43 1.52514725193254308e+00
50 43 1.54020983376721343e+00
51 43 1.55425145977165213e+00
52 43 1.56727528157242046e+00
53 43 1.57928630521464419e+00
54 43 1.59029132323851918e+00
55 43 1.60029884076609430e+00
56 43 1.60931899632389985e+00
57 43 1.61736347813749037e+00
58 43 1.62444543663582164e+00
59 43 1.63057939389711115e+00
60 43 1.63578115075398123e+00
61 43 1.64006769225508964e+00
62 43 1.64345709215369018e+00
63 43 1.64596841706152230e+00
64 43 1.64762163086994651e+00
65 43 1.64843750000000044e+00
66 43 1.64843749999999978e+00
1 44 0.00000000000000000e+00
2 44 1.84699939695852876e-02
3 44 5.55668434038363648e-02
4 44 9.29651331612390830e-02
5 44 1.30639771395544446e-01
6 44 1.68564292460322451e-01
7 44 2.06710876534869664e-01
8 44 2.45050376402591391e-01
9 44 2.83552351637491706e-01
10 44 3.22185110408029496e-01
11 44 3.60915759055416896e-01
12 44 3.99710259545697999e-01
13 44 4.38533494832016368e-01
14 44 4.77349342095863882e-01
15 44 5.16120753764393592e-01
16 44 5.54809846125846717e-01
17 44 5.93377995287589610e-01
18 44 6.31785940142195468e-01
19 44 6.69993891927452401e-01
20 44 7.07961649887293931e-01
21 44 7.45648722463590263e-01
22 44 7.83014453374816122e-01
23 44 8.20018151867989764e-01
24 44 8.56619226366269859e-01
25 44 8.92777320677362374e-01
26 44 9.28452451878587159e-01
27 44 9.63605148954119195e-01
28 44 9.98196591229474239e-01
29 44 1.03218874562850882e+00
30 44 1.06554450176967985e+00
31 44 1.09822780392143882e+00
32 44 1.13020377885165813e+00
33 44 1.16143885863287233e+00
34 44 1.19190089750360673e+00
35 44 1.22155928193586649e+00
36 44 1.25038503311903404e+00
37 44 1.27835090114046013e+00
38 44 1.30543145022158558e+00
39 44 1.33160313445454448e+00
40 44 1.35684436357636762e+00
41 44 1.38113555841484104e+00
42 44 1.40445919574018596e+00
43 44 1.42679984235849688e+00
44 44 1.44814417838483456e+00
45 44 1.46848100973436657e+00
46 44 1.48780126996776030e+00
47 44 1.50609801172050983e+00
48 44 1.52336638803413482e+00
49 44 1.53960362398877559e+00
50 44 1.55480897911097848e+00
51 44 1.56898370109650176e+00
52 44 1.58213097144514481e+00
53 44 1.59425584365269768e+00
54 44 1.60536517464362372e+00
55 44 1.61546755015724219e+00
56 44 1.62457320481986089e+00
57 44 1.63269393764590243e+00
58 44 1.63984302371293844e+00
59 44 1.64603512274921648e+00
60 44 1.65128618535828431e+00
61 44 1.65561335758452155e+00
62 44 1.65903488449637937e+00
63 44 1.66157001343177391e+00
64 44 1.66323889751326348e+00
65 44 1.66406250000000067e+00
66 44 1.66406249999999978e+00
1 45 0.00000000000000000e+00
2 45 1.86434211430086226e-02
3 45 5.60885978019944539e-02
4 45 9.38380452097014317e-02
5 45 1.31866435915690416e-01
6 45 1.70147055769809041e-01
7 45 2.08651823732380171e-01
8 45 2.47351318904024176e-01
9 45 2.86214815033148884e-01
10 45 3.25210322712330246e-01
11 45 3.64304639422134424e-01
12 45 4.03463407522652862e-01
13 45 4.42651180229500119e-01
14 45 4.81831495542773436e-01
15 45 5.20966958025092075e-01
16 45 5.60019328249094062e-01
17 45 5.98949619656487187e-01
18 45 6.37718202490948460e-01
19 45 6.76284914386865221e-01
20 45 7.14609177116282468e-01
21 45 7.52650118918647526e-01
22 45 7.90366701763311919e-01
23 45 8.27717852824496725e-01
24 45 8.64662599383793418e-01
25 45 9.01160206317525359e-01
26 45 9.37170315276508181e-01
27 45 9.72653084625049957e-01
28 45 1.00756932917529096e+00
29 45 1.04188065873300206e+00
30 45 1.07554961446235287e+00
31 45 1.10853980208032543e+00
32 45 1.14081602090660339e+00
33 45 1.17234438782191330e+00
34 45 1.20309245522664510e+00
35 45 1.23302932214183736e+00
36 45 1.26212573765536296e+00
37 45 1.29035419598684942e+00
38 45 1.31768902252413578e+00
39 45 1.34410645027101916e+00
40 45 1.36958468623905638e+00
41 45 1.39410396741404141e+00
42 45 1.41764660602882620e+00
43 45 1.44019702397688643e+00
44 45 1.46174177630394087e+00
45 45 1.48226956381637942e+00
46 45 1.50177123494398335e+00
47 45 1.52023977708877722e+00
48 45 1.53767029778093423e+00
49 45 1.55405999604500833e+00
50 45 1.56940812445474354e+00
51 45 1.58371594242135161e+00
52 45 1.59698666131786915e+00
53 45 1.60922538209075117e+00
54 45 1.62043902604872825e+00
55 45 1.63063625954839009e+00
56 45 1.63982741331582194e+00
57 45 1.64802439715431470e+00
58 45 1.65524061079005502e+00
59 45 1.66149085160132159e+00
60 45 1.66679121996258761e+00
61 45 1.67115902291395368e+00
62 45 1.67461267683906856e+00
63 45 1.67717160980202529e+00
64 45 1.67885616415658068e+00
65 45 1.67968750000000044e+00
66 45 1.67968749999999956e+00
1 46 0.00000000000000000e+00
2 46 1.88168483164319576e-02
3 46 5.66103522001525500e-02
4 46 9.47109572581637804e-02
5 46 1.33093100435836359e-01
6 46 1.71729819079295631e-01
7 46 2.10592770929890649e-01
8 46 2.49652261405456960e-01
9 46 2.88877278428806061e-01
10 46 3.28235535016630942e-01
11 46 3.67693519788851952e-01
12 46 4.07216555499607780e-01
13 46 4.46768865626983869e-01
14 46 4.86313648989682989e-01
15 46 5.25813162285790558e-01
16 46 5.65228810372341517e-01
17 46 6.04521244025384874e-01
18 46 6.43650464839701453e-01
19 46 6.82575936846277931e-01
20 46 7.21256704345271227e-01
21 46 7.59651515373704789e-01
22 46 7.97718950151807826e-01
23 46 8.35417553781003797e-01
24 46 8.72705972401317198e-01
25 46 9.09543091957688343e-01
26 46 9.45888178674429203e-01
27 46 9.81701020295980609e-01
28 46 1.01694206712110780e+00
29 46 1.05157257183749508e+00
30 46 1.08555472715502588e+00
31 46 1.11885180023921205e+00
32 46 1.15142826296154843e+00
33 46 1.18324991701095428e+00
34 46 1.21428401294968347e+00
35 46 1.24449936234780778e+00
36 46 1.27386644219169187e+00
37 46 1.30235749083323848e+00
38 46 1.32994659482668598e+00
39 46 1.35660976608749384e+00
40 46 1.38232500890174537e+00
41 46 1.40707237641324179e+00
42 46 1.43083401631746643e+00
43 46 1.45359420559527619e+00
44 46 1.47533937422304717e+00
45 46 1.49605811789839227e+00
46 46 1.51574119992020639e+00
47 46 1.53438154245704528e+00
48 46 1.55197420752773363e+00
49 46 1.56851636810124084e+00
50 46 1.58400726979850859e+00
51 46 1.59844818374620146e+00
52 46 1.61184235119059349e+00
53 46 1.62419492052880488e+00
54 46 1.63551287745383278e+00
55 46 1.64580496893953798e+00
56 46 1.65508162181178275e+00
57 46 1.66335485666272698e+00
58 46 1.67063819786717183e+00
59 46 1.67694658045342693e+00
60 46 1.68229625456689069e+00
61 46 1.68670468824338604e+00
62 46 1.69019046918175753e+00
63 46 1.69277320617227667e+00
64 46 1.69447343079989765e+00
65 46 1.69531250000000044e+00
66 46 1.69531249999999956e+00
1 47 0.00000000000000000e+00
2 47 1.89902754898552961e-02
3 47 5.71321065983106322e-02
4 47 9.55838693066261291e-02
5 47 1.34319764955982329e-01
6 47 1.73312582388782221e-01
7 47 2.12533718127401183e-01
8 47 2.51953203906889744e-01
9 47 2.91539741824463294e-01
10 47 3.31260747320931748e-01
11 47 3.71082400155569481e-01
12 47 4.10969703476562642e-01
13 47 4.50886551024467619e-01
14 47 4.90795802436592599e-01
15 47 5.30659366546489042e-01
16 47 5.70438292495588972e-01
17 47 6.10092868394282450e-01
18 47 6.49582727188454445e-01
19 47 6.88866959305690640e-01
20 47 7.27904231574259986e-01
21 47 7.66652911828761940e-01
22 47 8.05071198540303734e-01
23 47 8.43117254737510646e-01
24 47 8.80749345418840979e-01
25 47 9.17925977597851439e-01
26 47 9.54606042072350336e-01
27 47 9.90748955966911371e-01
28 47 1.02631480506692441e+00
29 47 1.06126448494198811e+00
30 47 1.09555983984769889e+00
31 47 1.12916379839809866e+00
32 47 1.16204050501649347e+00
33 47 1.19415544619999525e+00
34 47 1.22547557067272206e+00
35 47 1.25596940255377842e+00
36 47 1.28560714672802101e+00
37 47 1.31436078567962800e+00
38 47 1.34220416712923618e+00
39 47 1.36911308190396852e+00
40 47 1.39506533156443435e+00
41 47 1.42004078541244239e+00
42 47 1.44402142660610666e+00
43 47 1.46699138721366595e+00
44 47 1.48893697214215348e+00
45 47 1.50984667198040490e+00
46 47 1.52971116489642944e+00
47 47 1.54852330782531311e+00
48 47 1.56627811727453325e+00
49 47 1.58297274015747358e+00
50 47 1.59860641514227364e+00
51 47 1.61318042507105108e+00
52 47 1.62669804106331806e+00
53 47 1.63916445896685836e+00
54 47 1.65058672885893709e+00
55 47 1.66097367833068588e+00
56 47 1.67033583030774402e+00
57 47 1.67868531617113925e+00
58 47 1.68603578494428841e+00
59 47 1.69240230930553248e+00
60 47 1.69780128917119399e+00
61 47 1.70225035357281818e+00
62 47 1.70576826152444649e+00
63 47 1.70837480254252805e+00
64 47 1.71009069744321462e+00
65 47 1.71093750000000067e+00
66 47 1.71093749999999956e+00
1 48 0.00000000000000000e+00
2 48 1.91637026632786311e-02
3 48 5.76538609964687143e-02
4 48 9.64567813550884640e-02
5 48 1.35546429476128272e-01
6 48 1.74895345698268839e-01
7 48 2.14474665324911690e-01
8 48 2.54254146408322501e-01
9 48 2.94202205220120527e-01
10 48 3.34285959625232498e-01
11 48 3.74471280522287009e-01
12 48 4.14722851453517560e-01
13 48 4.55004236421951369e-01
14 48 4.95277955883502152e-01
15 48 5.35505570807187636e-01
16 48 5.75647774618836428e-01
17 48 6.15664492763180027e-01
18 48 6.55514989537207438e-01
19 48 6.95157981765103350e-01
20 48 7.34551758803248744e-01
21 48 7.73654308283819203e-01
22 48 8.12423446928799642e-01
23 48 8.50816955694017496e-01
24 48 8.88792718436364537e-01
25 48 9.26308863238014535e-01
26 48 9.63323905470271358e-01
27 48 9.99796891637842133e-01
28 48 1.03568754301274102e+00
29 48 1.07095639804648135e+00
30 48 1.10556495254037190e+00
31 48 1.13947579655698550e+00
32 48 1.17265274707143852e+00
33 48 1.20506097538903645e+00
34 48 1.23666712839576065e+00
35 48 1.26743944275974885e+00
36 48 1.29734785126434993e+00
37 48 1.32636408052601729e+00
38 48 1.35446173943178638e+00
39 48 1.38161639772044320e+00
40 48 1.40780565422712312e+00
41 48 1.43300919441164276e+00
42 48 1.45720883689474667e+00
43 48 1.48038856883205550e+00
44 48 1.50253457006126001e+00
45 48 1.52363522606241797e+00
46 48 1.54368112987265249e+00
47 48 1.56266507319358050e+00
48 48 1.58058202702133244e+00
49 48 1.59742911221370631e+00
50 48 1.61320556048603891e+00
51 48 1.62791266639590093e+00
52 48 1.64155373093604262e+00
53 48 1.65413399740491185e+00
54 48 1.66566058026404140e+00
55 48 1.67614238772183355e+00
56 48 1.68559003880370506e+00
57 48 1.69401577567955153e+00
58 48 1.70143337202140521e+00
59 48 1.70785803815763781e+00
60 48 1.71330632377549708e+00
61 48 1.71779601890225031e+00
62 48 1.72134605386713546e+00
63 48 1.72397639891277921e+00
64 48 1.72570796408653160e+00
65 48 1.72656250000000067e+00
66 48 1.72656249999999933e+00
1 49 0.00000000000000000e+00
2 49 1.93371298367019662e-02
3 49 5.81756153946268034e-02
4 49 9.73296934035507988e-02
5 49 1.36773093996274242e-01
6 49 1.76478109007755429e-01
7 49 2.16415612522422196e-01
8 49 2.56555088909755313e-01
9 49 2.96864668615777705e-01
10 49 3.37311171929533249e-01
11 49 3.77860160889004537e-01
12 49 4.18475999430472367e-01
13 49 4.59121921819435119e-01
14 49 4.99760109330411650e-01
15 49 5.40351775067886231e-01
16 49 5.80857256742083883e-01
17 49 6.21236117132077603e-01
18 49 6.61447251885960541e-01
19 49 7.01449004224516059e-01
20 49 7.41199286032237392e-01
21 49 7.80655704738876355e-01
22 49 8.19775695317295550e-01
23 49 8.58516656650524457e-01
24 49 8.96836091453888096e-01
25 49 9.34691748878177520e-01
26 49 9.72041768868192269e-01
27 49 1.00884482730877267e+00
28 49 1.04506028095855763e+00
29 49 1.08064831115097459e+00
30 49 1.11557006523304492e+00
31 49 1.14978779471587234e+00
32 49 1.18326498912638356e+00
33 49 1.21596650457807742e+00
34 49 1.24785868611879924e+00
35 49 1.27890948296571949e+00
36 49 1.30908855580067907e+00
37 49 1.33836737537240680e+00
38 49 1.36671931173433636e+00
39 49 1.39411971353691810e+00
40 49 1.42054597688981210e+00
41 49 1.44597760341084314e+00
42 49 1.47039624718338668e+00
43 49 1.49378575045044526e+00
44 49 1.51613216798036632e+00
45 49 1.53742378014443104e+00
46 49 1.55765109484887576e+00
47 49 1.57680683856184833e+00
48 49 1.59488593676813184e+00
49 49 1.61188548426993883e+00
50 49 1.62780470582980397e+00
51 49 1.64264490772075056e+00
52 49 1.65640942080876719e+00
53 49 1.66910353584296534e+00
54 49 1.68073443166914571e+00
55 49 1.69131109711298144e+00
56 49 1.70084424729966632e+00
57 49 1.70934623518796358e+00
58 49 1.71683095909852201e+00
59 49 1.72331376700974293e+00
60 49 1.72881135837979993e+00
61 49 1.73334168423168244e+00
62 49 1.73692384620982443e+00
63 49 1.73957799528303059e+00
64 49 1.74132523072984879e+00
65 49 1.74218750000000044e+00
66 49 1.74218749999999933e+00
1 50 0.00000000000000000e+00
2 50 1.95105570101253012e-02
3 50 5.86973697927848856e-02
4 50 9.82026054520131475e-02
5 50 1.37999758516420212e-01
6 50 1.78060872317242047e-01
7 50 2.18356559719932730e-01
8 50 2.58856031411188126e-01
9 50 2.99527132011434938e-01
10 50 3.40336384233834000e-01
11 50 3.81249041255722065e-01
12 50 4.22229147407427285e-01
13 50 4.63239607216918869e-01
14 50 5.04242262777321204e-01
15 50 5.45197979328584825e-01
16 50 5.86066738865331227e-01
17 50 6.26807741500975180e-01
18 50 6.67379514234713422e-01
19 50 7.07740026683928658e-01
20 50 7.47846813261226040e-01
21 50 7.87657101193933618e-01
22 50 8.27127943705791457e-01
23 50 8.66216357607031306e-01
24 50 9.04879464471411765e-01
25 50 9.43074634518340393e-01
26 50 9.80759632266113290e-01
27 50 1.01789276297970321e+00
28 50 1.05443301890437424e+00
29 50 1.09034022425546762e+00
30 50 1.12557517792571793e+00
31 50 1.16009979287475917e+00
32 50 1.19387723118132882e+00
33 50 1.22687203376711862e+00
34 50 1.25905024384183784e+00
35 50 1.29037952317168991e+00
36 50 1.32082926033700820e+00
37 50 1.35037067021879587e+00
38 50 1.37897688403688656e+00
39 50 1.40662302935339256e+00
40 50 1.43328629955250109e+00
41 50 1.45894601241004351e+00
42 50 1.48358365747202692e+00
43 50 1.50718293206883480e+00
44 50 1.52972976589947263e+00
45 50 1.55121233422644389e+00
46 50 1.57162105982509859e+00
47 50 1.59094860393011595e+00
48 50 1.60918984651493124e+00
49 50 1.62634185632617134e+00
50 50 1.64240385117356902e+00
51 50 1.65737714904560018e+00
52 50 1.67126511068149175e+00
53 50 1.68407307428101904e+00
54 50 1.69580828307425024e+00
55 50 1.70647980650412912e+00
56 50 1.71609845579562759e+00
57 50 1.72467669469637586e+00
58 50 1.73222854617563904e+00
59 50 1.73876949586184804e+00
60 50 1.74431639298410301e+00
61 50 1.74888734956111458e+00
62 50 1.75250163855251340e+00
63 50 1.75517959165328197e+00
64 50 1.75694249737316577e+00
65 50 1.75781250000000044e+00
66 50 1.75781249999999956e+00
1 51 0.00000000000000000e+00
2 51 1.96839841835486362e-02
3 51 5.92191241909429747e-02
4 51 9.90755175004754823e-02
5 51 1.39226423036566183e-01
6 51 1.79643635626728637e-01
7 51 2.20297506917443237e-01
8 51 2.61156973912620938e-01
9 51 3.02189595407092171e-01
10 51 3.43361596538134750e-01
11 51 3.84637921622439594e-01
12 51 4.25982295384382204e-01
13 51 4.67357292614402620e-01
14 51 5.08724416224230813e-01
15 51 5.50044183589283309e-01
16 51 5.91276220988578682e-01
17 51 6.32379365869872756e-01
18 51 6.73311776583466304e-01
19 51 7.14031049143341368e-01
20 51 7.54494340490214688e-01
21 51 7.94658497648990880e-01
22 51 8.34480192094287476e-01
23 51 8.73916058563538267e-01
24 51 9.12922837488935324e-01
25 51 9.51457520158503489e-01
26 51 9.89477495664034423e-01
27 51 1.02694069865063398e+00
28 51 1.06380575685019085e+00
29 51 1.10003213735996086e+00
30 51 1.13558029061839094e+00
31 51 1.17041179103364579e+00
32 51 1.20448947323627409e+00
33 51 1.23777756295615959e+00
34 51 1.27024180156487621e+00
35 51 1.30184956337766056e+00
36 51 1.33256996487333712e+00
37 51 1.36237396506518516e+00
38 51 1.39123445633943676e+00
39 51 1.41912634516986724e+00
40 51 1.44602662221519007e+00
41 51 1.47191442140924367e+00
42 51 1.49677106776066715e+00
43 51 1.52058011368722457e+00
44 51 1.54332736381857916e+00
45 51 1.56500088830845696e+00
46 51 1.58559102480132164e+00
47 51 1.60509036929838378e+00
48 51 1.62349375626173087e+00
49 51 1.64079822838240408e+00
50 51 1.65700299651733407e+00
51 51 1.67210939037045003e+00
52 51 1.68612080055421609e+00
53 51 1.69904261271907253e+00
54 51 1.71088213447935455e+00
55 51 1.72164851589527701e+00
56 51 1.73135266429158885e+00
57 51 1.74000715420478813e+00
58 51 1.74762613325275584e+00
59 51 1.75422522471395337e+00
60 51 1.75982142758840587e+00
61 51 1.76443301489054671e+00
62 51 1.76807943089520236e+00
63 51 1.77078118802353357e+00
64 51 1.77255976401648274e+00
65 51 1.77343750000000044e+00
66 51 1.77343749999999978e+00
1 52 0.00000000000000000e+00
2 52 1.98574113569719712e-02
3 52 5.97408785891010638e-02
4 52 9.99484295489378310e-02
5 52 1.40453087556712125e-01
6 52 1.81226398936215227e-01
7 52 2.22238454114953771e-01
8 52 2.63457916414053750e-01
9 52 3.04852058802749348e-01
10 52 3.46386808842435501e-01
11 52 3.88026801989157066e-01
12 52 4.29735443361337122e-01
13 52 4.71474978011886314e-01
14 52 5.13206569671140422e-01
15 52 5.54890387849981903e-01
16 52 5.96485703111826027e-01
17 52 6.37950990238770332e-01
18 52 6.79244038932219185e-01
19 52 7.20322071602753966e-01
20 52 7.61141867719203447e-01
21 52 8.01659894104048143e-01
22 52 8.41832440482783384e-01
23 52 8.81615759520045228e-01
24 52 9.20966210506458882e-01
25 52 9.59840405798666474e-01
26 52 9.98195359061955334e-01
27 52 1.03598863432156474e+00
28 52 1.07317849479600746e+00
29 52 1.10972405046445388e+00
30 52 1.14558540331106395e+00
31 52 1.18072378919253240e+00
32 52 1.21510171529121935e+00
33 52 1.24868309214520057e+00
34 52 1.28143335928791480e+00
35 52 1.31331960358363120e+00
36 52 1.34431066940966604e+00
37 52 1.37437725991157444e+00
38 52 1.40349202864198674e+00
39 52 1.43162966098634192e+00
40 52 1.45876694487787906e+00
41 52 1.48488283040844404e+00
42 52 1.50995847804930738e+00
43 52 1.53397729530561433e+00
44 52 1.55692496173768546e+00
45 52 1.57878944239047003e+00
46 52 1.59956098977754491e+00
47 52 1.61923213466665161e+00
48 52 1.63779766600853027e+00
49 52 1.65525460043863681e+00
50 52 1.67160214186109912e+00
51 52 1.68684163169529966e+00
52 52 1.70097649042694044e+00
53 52 1.71401215115712602e+00
54 52 1.72595598588445909e+00
55 52 1.73681722528642490e+00
56 52 1.74660687278754989e+00
57 52 1.75533761371320041e+00
58 52 1.76302372032987265e+00
59 52 1.76968095356605892e+00
60 52 1.77532646219270895e+00
61 52 1.77997868021997863e+00
62 52 1.78365722323789133e+00
63 52 1.78638278439378495e+00
64 52 1.78817703065979994e+00
65 52 1.78906250000000044e+00
66 52 1.78906249999999978e+00
1 53 0.00000000000000000e+00
2 53 2.00308385303953063e-02
3 53 6.02626329872591460e-02
4 53 1.00821341597400152e-01
5 53 1.41679752076858123e-01
6 53 1.82809162245701845e-01
7 53 2.24179401312464277e-01
8 53 2.65758858915486562e-01
9 53 3.07514522198406526e-01
10 53 3.49412021146736251e-01
11 53 3.91415682355874595e-01
12 53 4.33488591338292040e-01
13 53 4.75592663409370009e-01
14 53 5.17688723118049920e-01
15 53 5.59736592110680498e-01
16 53 6.01695185235073482e-01
17 53 6.43522614607667909e-01
18 53 6.85176301280972289e-01
19 53 7.26613094062166676e-01
20 53 7.67789394948192094e-01
21 53 8.08661290559105406e-01
22 53 8.49184688871279403e-01
23 53 8.89315460476552189e-01
24 53 9.29009583523982663e-01
25 53 9.68223291438829348e-01
26 53 1.00691322245987624e+00
27 53 1.04503656999249550e+00
28 53 1.08255123274182408e+00
29 53 1.11941596356894690e+00
30 53 1.15559051600373697e+00
31 53 1.19103578735141924e+00
32 53 1.22571395734616440e+00
33 53 1.25958862133424176e+00
34 53 1.29262491701095339e+00
35 53 1.32478964378960185e+00
36 53 1.35605137394599518e+00
37 53 1.38638055475796351e+00
38 53 1.41574960094453695e+00
39 53 1.44413297680281638e+00
40 53 1.47150726754056782e+00
41 53 1.49785123940764442e+00
42 53 1.52314588833794762e+00
43 53 1.54737447692400409e+00
44 53 1.57052255965679199e+00
45 53 1.59257799647248266e+00
46 53 1.61353095475376795e+00
47 53 1.63337390003491922e+00
48 53 1.65210157575532990e+00
49 53 1.66971097249486933e+00
50 53 1.68620128720486440e+00
51 53 1.70157387302014929e+00
52 53 1.71583218029966500e+00
53 53 1.72898168959517928e+00
54 53 1.74102983728956362e+00
55 53 1.75198593467757280e+00
56 53 1.76186108128351093e+00
57 53 1.77066807322161268e+00
58 53 1.77842130740698945e+00
59 53 1.78513668241816448e+00
60 53 1.79083149679701203e+00
61 53 1.79552434554941076e+00
62 53 1.79923501558058030e+00
63 53 1.80198438076403633e+00
64 53 1.80379429730311713e+00
65 53 1.80468750000000044e+00
66 53 1.80468749999999978e+00
1 54 0.00000000000000000e+00
2 54 2.02042657038186413e-02
3 54 6.07843873854172281e-02
4 54 1.01694253645862501e-01
5 54 1.42906416597004093e-01
6 54 1.84391925555188407e-01
7 54 2.26120348509974811e-01
8 54 2.68059801416919319e-01
9 54 3.10176985594063814e-01
10 54 3.52437233451037057e-01
11 54 3.94804562722592123e-01
12 54 4.37241739315246958e-01
13 54 4.79710348806853759e-01
14 54 5.22170876564959419e-01
15 54 5.64582796371378981e-01
16 54 6.06904667358320826e-01
17 54 6.49094238976565485e-01
18 54 6.91108563629725281e-01
19 54 7.32904116521579274e-01
20 54 7.74436922177180742e-01
21 54 8.15662687014162668e-01
22 54 8.56536937259775311e-01
23 54 8.97015161433059038e-01
24 54 9.37052956541506443e-01
25 54 9.76606177078992332e-01
26 54 1.01563108585779727e+00
27 54 1.05408450566342626e+00
28 54 1.09192397068764091e+00
29 54 1.12910787667343993e+00
30 54 1.16559562869640998e+00
31 54 1.20134778551030585e+00
32 54 1.23632619940110966e+00
33 54 1.27049415052328274e+00
34 54 1.30381647473399176e+00
35 54 1.33625968399557227e+00
36 54 1.36779207848232387e+00
37 54 1.39838384960435280e+00
38 54 1.42800717324708693e+00
39 54 1.45663629261929084e+00
40 54 1.48424759020325658e+00
41 54 1.51081964840684480e+00
42 54 1.53633329862658785e+00
43 54 1.56077165854239386e+00
44 54 1.58412015757589830e+00
45 54 1.60636655055449573e+00
46 54 1.62750091972999100e+00
47 54 1.64751566540318661e+00
48 54 1.66640548550212930e+00
49 54 1.68416734455110184e+00
50 54 1.70080043254862945e+00
51 54 1.71630611434499913e+00
52 54 1.73068787017238956e+00
53 54 1.74395122803323277e+00
54 54 1.75610368869466793e+00
55 54 1.76715464406872047e+00
56 54 1.77711528977947220e+00
57 54 1.78599853273002473e+00
58 54 1.79381889448410625e+00
59 54 1.80059241127026959e+00
60 54 1.80633653140131512e+00
61 54 1.81107001087884290e+00
62 54 1.81481280792326949e+00
63 54 1.81758597713428793e+00
64 54 1.81941156394643411e+00
65 54 1.82031250000000067e+00
66 54 1.82031249999999978e+00
1 55 0.00000000000000000e+00
2 55 2.03776928772419798e-02
3 55 6.13061417835753103e-02
4 55 1.02567165694324849e-01
5 55 1.44133081117150064e-01
6 55 1.85974688864675025e-01
7 55 2.28061295707485318e-01
8 55 2.70360743918352076e-01
9 55 3.12839448989720992e-01
10 55 3.55462445755337808e-01
11 55 3.98193443089309651e-01
12 55 4.40994887292201876e-01
13 55 4.83828034204337454e-01
14 55 5.26653030011868917e-01
15 55 5.69429000632077464e-01
16 55 6.12114149481568282e-01
17 55 6.54665863345463062e-01
18 55 6.97040825978478273e-01
19 55 7.39195138980991984e-01
20 55 7.81084449406169501e-01
21 55 8.22664083469219931e-01
22 55 8.63889185648271218e-01
23 55 9.04714862389565999e-01
24 55 9.45096329559030113e-01
25 55 9.84989062719155317e-01
26 55 1.02434894925571829e+00
27 55 1.06313244133435703e+00
28 55 1.10129670863345774e+00
29 55 1.13879978977793295e+00
30 55 1.17560074138908299e+00
31 55 1.21165978366919269e+00
32 55 1.24693844145605470e+00
33 55 1.28139967971232371e+00
34 55 1.31500803245703035e+00
35 55 1.34772972420154291e+00
36 55 1.37953278301865279e+00
37 55 1.41038714445074231e+00
38 55 1.44026474554963690e+00
39 55 1.46913960843576552e+00
40 55 1.49698791286594579e+00
41 55 1.52378805740604517e+00
42 55 1.54952070891522808e+00
43 55 1.57416884016078362e+00
44 55 1.59771775549500461e+00
45 55 1.62015510463650858e+00
46 55 1.64147088470621427e+00
47 55 1.66165743077145422e+00
48 55 1.68070939524892871e+00
49 55 1.69862371660733458e+00
50 55 1.71539957789239450e+00
51 55 1.73103835566984898e+00
52 55 1.74554356004511391e+00
53 55 1.75892076647128648e+00
54 55 1.77117754009977246e+00
55 55 1.78232335345986814e+00
56 55 1.79236949827543324e+00
57 55 1.80132899223843679e+00
58 55 1.80921648156122306e+00
59 55 1.81604814012237492e+00
60 55 1.82184156600561820e+00
61 55 1.82661567620827503e+00
62 55 1.83039060026595846e+00
63 55 1.83318757350453931e+00
64 55 1.83502883058975108e+00
65 55 1.83593750000000067e+00
66 55 1.83593749999999978e+00
1 56 0.00000000000000000e+00
2 56 2.05511200506653148e-02
3 56 6.18278961817333994e-02
4 56 1.03440077742787198e-01
5 56 1.45359745637296006e-01
6 56 1.87557452174161587e-01
7 56 2.30002242904995824e-01
8 56 2.72661686419784832e-01
9 56 3.15501912385378169e-01
10 56 3.58487658059638503e-01
11 56 4.01582323456027235e-01
12 56 4.44748035269156738e-01
13 56 4.87945719601821148e-01
14 56 5.31135183458778415e-01
15 56 5.74275204892776059e-01
16 56 6.17323631604815737e-01
17 56 6.60237487714360638e-01
18 56 7.02973088327231266e-01
19 56 7.45486161440404804e-01
20 56 7.87731976635158149e-01
21 56 8.29665479924277083e-01
22 56 8.71241434036767237e-01
23 56 9.12414563346072960e-01
24 56 9.53139702576553671e-01
25 56 9.93371948359318413e-01
26 56 1.03306681265363931e+00
27 56 1.07218037700528779e+00
28 56 1.11066944657927436e+00
29 56 1.14849170288242597e+00
30 56 1.18560585408175578e+00
31 56 1.22197178182807953e+00
32 56 1.25755068351099997e+00
33 56 1.29230520890136469e+00
34 56 1.32619959018006894e+00
35 56 1.35919976440751356e+00
36 56 1.39127348755498192e+00
37 56 1.42239043929713160e+00
38 56 1.45252231785218711e+00
39 56 1.48164292425223998e+00
40 56 1.50972823552863478e+00
41 56 1.53675646640524577e+00
42 56 1.56270811920386810e+00
43 56 1.58756602177917294e+00
44 56 1.61131535341411114e+00
45 56 1.63394365871852121e+00
46 56 1.65544084968243732e+00
47 56 1.67579919613972184e+00
48 56 1.69501330499572833e+00
49 56 1.71308008866356731e+00
50 56 1.72999872323615933e+00
51 56 1.74577059699469905e+00
52 56 1.76039924991783825e+00
53 56 1.77389030490933997e+00
54 56 1.78625139150487722e+00
55 56 1.79749206285101581e+00
56 56 1.80762370677139428e+00
57 56 1.81665945174684884e+00
58 56 1.82461406863834008e+00
59 56 1.83150386897448003e+00
60 56 1.83734660060992105e+00
61 56 1.84216134153770694e+00
62 56 1.84596839260864742e+00
63 56 1.84878916987479092e+00
64 56 1.85064609723306828e+00
65 56 1.85156250000000067e+00
66 56 1.85156249999999978e+00
1 57 0.00000000000000000e+00
2 57 2.07245472240886498e-02
3 57 6.23496505798914816e-02
4 57 1.04312989791249533e-01
5 57 1.46586410157441949e-01
6 57 1.89140215483648205e-01
7 57 2.31943190102506330e-01
8 57 2.74962628921217589e-01
9 57 3.18164375781035347e-01
10 57 3.61512870363939198e-01
11 57 4.04971203822744763e-01
12 57 4.48501183246111657e-01
13 57 4.92063404999304843e-01
14 57 5.35617336905687913e-01
15 57 5.79121409153474431e-01
16 57 6.22533113728063192e-01
17 57 6.65809112083258103e-01
18 57 7.08905350675984258e-01
19 57 7.51777183899817514e-01
20 57 7.94379503864146908e-01
21 57 8.36666876379334346e-01
22 57 8.78593682425263256e-01
23 57 9.20114264302579921e-01
24 57 9.61183075594077341e-01
25 57 1.00175483399948151e+00
26 57 1.04178467605156033e+00
27 57 1.08122831267621855e+00
28 57 1.12004218452509097e+00
29 57 1.15818361598691877e+00
30 57 1.19561096677442880e+00
31 57 1.23228377998696614e+00
32 57 1.26816292556594501e+00
33 57 1.30321073809040566e+00
34 57 1.33739114790310754e+00
35 57 1.37066980461348398e+00
36 57 1.40301419209131106e+00
37 57 1.43439373414352112e+00
38 57 1.46477989015473731e+00
39 57 1.49414624006871488e+00
40 57 1.52246855819132376e+00
41 57 1.54972487540444614e+00
42 57 1.57589552949250811e+00
43 57 1.60096320339756271e+00
44 57 1.62491295133321745e+00
45 57 1.64773221280053384e+00
46 57 1.66941081465866059e+00
47 57 1.68994096150798945e+00
48 57 1.70931721474252774e+00
49 57 1.72753646071979983e+00
50 57 1.74459786857992438e+00
51 57 1.76050283831954868e+00
52 57 1.77525493979056259e+00
53 57 1.78885984334739345e+00
54 57 1.80132524290998153e+00
55 57 1.81266077224216371e+00
56 57 1.82287791526735554e+00
57 57 1.83198991125526112e+00
58 57 1.84001165571545666e+00
59 57 1.84695959782658536e+00
60 57 1.85285163521422414e+00
61 57 1.85770700686713908e+00
62 57 1.86154618495133617e+00
63 57 1.86439076624504230e+00
64 57 1.86626336387638503e+00
65 57 1.86718750000000044e+00
66 57 1.86718749999999978e+00
1 58 0.00000000000000000e+00
2 58 2.08979743975119814e-02
3 58 6.28714049780495637e-02
4 58 1.05185901839711868e-01
5 58 1.47813074677587919e-01
6 58 1.90722978793134795e-01
7 58 2.33884137300016837e-01
8 58 2.77263571422650346e-01
9 58 3.20826839176692469e-01
10 58 3.64538082668239893e-01
11 58 4.08360084189462291e-01
12 58 4.52254331223066519e-01
13 58 4.96181090396788593e-01
14 58 5.40099490352597411e-01
15 58 5.83967613414173026e-01
16 58 6.27742595851310647e-01
17 58 6.71380736452155680e-01
18 58 7.14837613024737140e-01
19 58 7.58068206359230223e-01
20 58 8.01027031093135555e-01
21 58 8.43668272834391497e-01
22 58 8.85945930813759275e-01
23 58 9.27813965259086881e-01
24 58 9.69226448611601121e-01
25 58 1.01013771963964460e+00
26 58 1.05050253944948135e+00
27 58 1.09027624834714931e+00
28 58 1.12941492247090758e+00
29 58 1.16787552909141179e+00
30 58 1.20561607946710181e+00
31 58 1.24259577814585276e+00
32 58 1.27877516762089027e+00
33 58 1.31411626727944664e+00
34 58 1.34858270562614635e+00
35 58 1.38213984481945462e+00
36 58 1.41475489662764020e+00
37 58 1.44639702898991040e+00
38 58 1.47703746245728751e+00
39 58 1.50664955588518956e+00
40 58 1.53520888085401253e+00
41 58 1.56269328440364652e+00
42 58 1.58908293978114856e+00
43 58 1.61436038501595247e+00
44 58 1.63851054925232376e+00
45 58 1.66152076688254691e+00
46 58 1.68338077963488364e+00
47 58 1.70408272687625706e+00
48 58 1.72362112448932714e+00
49 58 1.74199283277603234e+00
50 58 1.75919701392368943e+00
51 58 1.77523507964439853e+00
52 58 1.79011062966328671e+00
53 58 1.80382938178544716e+00
54 58 1.81639909431508584e+00
55 58 1.82782948163331160e+00
56 58 1.83813212376331681e+00
57 58 1.84732037076367339e+00
58 58 1.85540924279257347e+00
59 58 1.86241532667869070e+00
60 58 1.86835666981852722e+00
61 58 1.87325267219657121e+00
62 58 1.87712397729402491e+00
63 58 1.87999236261529368e+00
64 58 1.88188063051970200e+00
65 58 1.88281250000000022e+00
66 58 1.88281249999999978e+00
1 59 0.00000000000000000e+00
2 59 2.10714015709353199e-02
3 59 6.33931593762076528e-02
4 59 1.06058813888174203e-01
5 59 1.49039739197733861e-01
6 59 1.92305742102621385e-01
7 59 2.35825084497527343e-01
8 59 2.79564513924083158e-01
9 59 3.23489302572349646e-01
10 59 3.67563294972540644e-01
11 59 4.11748964556179819e-01
12 59 4.56007479200021437e-01
13 59 5.00298775794272288e-01
14 59 5.44581643799506909e-01
15 59 5.88813817674871620e-01
16 59 6.32952077974557992e-01
17 59 6.76952360821053256e-01
18 59 7.20769875373490132e-01
19 59 7.64359228818642822e-01
20 59 8.07674558322124314e-01
21 59 8.50669669289448538e-01
22 59 8.93298179202255183e-01
23 59 9.35513666215593842e-01
24 59 9.77269821629124791e-01
25 59 1.01852060527980770e+00
26 59 1.05922040284740238e+00
27 59 1.09932418401808008e+00
28 59 1.13878766041672441e+00
29 59 1.17756744219590503e+00
30 59 1.21562119215977482e+00
31 59 1.25290777630473915e+00
32 59 1.28938740967583554e+00
33 59 1.32502179646848783e+00
34 59 1.35977426334918494e+00
35 59 1.39360988502542527e+00
36 59 1.42649560116396890e+00
37 59 1.45840032383629969e+00
38 59 1.48929503475983771e+00
39 59 1.51915287170166446e+00
40 59 1.54794920351670129e+00
41 59 1.57566169340284690e+00
42 59 1.60227035006978857e+00
43 59 1.62775756663434223e+00
44 59 1.65210814717143029e+00
45 59 1.67530932096455976e+00
46 59 1.69735074461110669e+00
47 59 1.71822449224452467e+00
48 59 1.73792503423612632e+00
49 59 1.75644920483226508e+00
50 59 1.77379615926745426e+00
51 59 1.78996732096924838e+00
52 59 1.80496631953601105e+00
53 59 1.81879892022350065e+00
54 59 1.83147294572019037e+00
55 59 1.84299819102445950e+00
56 59 1.85338633225927785e+00
57 59 1.86265083027208567e+00
58 59 1.87080682986969005e+00
59 59 1.87787105553079603e+00
60 59 1.88386170442283030e+00
61 59 1.88879833752600312e+00
62 59 1.89270176963671388e+00
63 59 1.89559395898554484e+00
64 59 1.89749789716301920e+00
65 59 1.89843750000000022e+00
66 59 1.89843749999999978e+00
1 60 0.00000000000000000e+00
2 60 2.12448287443586584e-02
3 60 6.39149137743657281e-02
4 60 1.06931725936636524e-01
5 60 1.50266403717879804e-01
6 60 1.93888505412108003e-01
7 60 2.37766031695037877e-01
8 60 2.81865456425515970e-01
9 60 3.26151765968006879e-01
10 60 3.70588507276841395e-01
11 60 4.15137844922897348e-01
12 60 4.59760627176976355e-01
13 60 5.04416461191755983e-01
14 60 5.49063797246416407e-01
15 60 5.93660021935570326e-01
16 60 6.38161560097805447e-01
17 60 6.82523985189950833e-01
18 60 7.26702137722243124e-01
19 60 7.70650251278055531e-01
20 60 8.14322085551113073e-01
21 60 8.57671065744505801e-01
22 60 9.00650427590751201e-01
23 60 9.43213367172100803e-01
24 60 9.85313194646648460e-01
25 60 1.02690349091997080e+00
26 60 1.06793826624532340e+00
27 60 1.10837211968901062e+00
28 60 1.14816039836254125e+00
29 60 1.18725935530039806e+00
30 60 1.22562630485244806e+00
31 60 1.26321977446362599e+00
32 60 1.29999965173078080e+00
33 60 1.33592732565752881e+00
34 60 1.37096582107222353e+00
35 60 1.40507992523139591e+00
36 60 1.43823630570029781e+00
37 60 1.47040361868268921e+00
38 60 1.50155260706238791e+00
39 60 1.53165618751813914e+00
40 60 1.56068952617939027e+00
41 60 1.58863010240204749e+00
42 60 1.61545776035842881e+00
43 60 1.64115474825273200e+00
44 60 1.66570574509053682e+00
45 60 1.68909787504657238e+00
46 60 1.71132070958732974e+00
47 60 1.73236625761279250e+00
48 60 1.75222894398292572e+00
49 60 1.77090557688849759e+00
50 60 1.78839530461121932e+00
51 60 1.80469956229409823e+00
52 60 1.81982200940873518e+00
53 60 1.83376845866155413e+00
54 60 1.84654679712529468e+00
55 60 1.85816690041560717e+00
56 60 1.86864054075523911e+00
57 60 1.87798128978049794e+00
58 60 1.88620441694680707e+00
59 60 1.89332678438290136e+00
60 60 1.89936673902713360e+00
61 60 1.90434400285543548e+00
62 60 1.90827956197940285e+00
63 60 1.91119555535579622e+00
64 60 1.91311516380633617e+00
65 60 1.91406250000000044e+00
66 60 1.91406249999999978e+00
1 61 0.00000000000000000e+00
2 61 2.14182559177819934e-02
3 61 6.44366681725238172e-02
4 61 1.07804637985098858e-01
5 61 1.51493068238025774e-01
6 61 1.95471268721594593e-01
7 61 2.39706978892548384e-01
8 61 2.84166398926948838e-01
9 61 3.28814229363664112e-01
10 61 3.73613719581142145e-01
11 61 4.18526725289614876e-01
12 61 4.63513775153931273e-01
13 61 5.08534146589239677e-01
14 61 5.53545950693325906e-01
15 61 5.98506226196268920e-01
16 61 6.43371042221052791e-01
17 61 6.88095609558848409e-01
18 61 7.32634400070996117e-01
19 61 7.76941273737468130e-01
20 61 8.20969612780101832e-01
21 61 8.64672462199563063e-01
22 61 9.08002675979247109e-01
23 61 9.50913068128607764e-01
24 61 9.93356567664172130e-01
25 61 1.03528637656013389e+00
26 61 1.07665612964324442e+00
27 61 1.11742005535994138e+00
28 61 1.15753313630835808e+00
29 61 1.19695126840489108e+00
30 61 1.23563141754512107e+00
31 61 1.27353177262251260e+00
32 61 1.31061189378572585e+00
33 61 1.34683285484657023e+00
34 61 1.38215737879526235e+00
35 61 1.41654996543736633e+00
36 61 1.44997701023662673e+00
37 61 1.48240691352907850e+00
38 61 1.51381017936493811e+00
39 61 1.54415950333461360e+00
40 61 1.57342984884207904e+00
41 61 1.60159851140124787e+00
42 61 1.62864517064706904e+00
43 61 1.65455192987112154e+00
44 61 1.67930334300964335e+00
45 61 1.70288642912858545e+00
46 61 1.72529067456355278e+00
47 61 1.74650802298106034e+00
48 61 1.76653285372972513e+00
49 61 1.78536194894473033e+00
50 61 1.80299444995498437e+00
51 61 1.81943180361894763e+00
52 61 1.83467769928145952e+00
53 61 1.84873799709960784e+00
54 61 1.86162064853039921e+00
55 61 1.87333560980675506e+00
56 61 1.88389474925120037e+00
57 61 1.89331174928891022e+00
58 61 1.90160200402392410e+00
59 61 1.90878251323500669e+00
60 61 1.91487177363143668e+00
61 61 1.91988966818486761e+00
62 61 1.92385735432209204e+00
63 61 1.92679715172604760e+00
64 61 1.92873243044965315e+00
65 61 1.92968750000000067e+00
66 61 1.92968749999999978e+00
1 62 0.00000000000000000e+00
2 62 2.15916830912053284e-02
3 62 6.49584225706819063e-02
4 62 1.08677550033561207e-01
5 62 1.52719732758171745e-01
6 62 1.97054032031081183e-01
7 62 2.41647926090058890e-01
8 62 2.86467341428381594e-01
9 62 3.31476692759321290e-01
10 62 3.76638931885442951e-01
11 62 4.21915605656332404e-01
12 62 4.67266923130886247e-01
13 62 5.12651831986723372e-01
14 62 5.58028104140235515e-01
15 62 6.03352430456967403e-01
16 62 6.48580524344300247e-01
17 62 6.93667233927745985e-01
18 62 7.38566662419749109e-01
19 62 7.83232296196880839e-01
20 62 8.27617140009090480e-01
21 62 8.71673858654620326e-01
22 62 9.15354924367743017e-01
23 62 9.58612769085114613e-01
24 62 1.00139994068169580e+00
25 62 1.04366926220029699e+00
26 62 1.08537399304116544e+00
27 62 1.12646799103087214e+00
28 62 1.16690587425417469e+00
29 62 1.20664318150938432e+00
30 62 1.24563653023779430e+00
31 62 1.28384377078139922e+00
32 62 1.32122413584067111e+00
33 62 1.35773838403561142e+00
34 62 1.39334893651830094e+00
35 62 1.42802000564333698e+00
36 62 1.46171771477295565e+00
37 62 1.49441020837546779e+00
38 62 1.52606775166748831e+00
39 62 1.55666281915108828e+00
40 62 1.58617017150476780e+00
41 62 1.61456692040044825e+00
42 62 1.64183258093570927e+00
43 62 1.66794911148951108e+00
44 62 1.69290094092874988e+00
45 62 1.71667498321059830e+00
46 62 1.73926063953977583e+00
47 62 1.76064978834932773e+00
48 62 1.78083676347652453e+00
49 62 1.79981832100096284e+00
50 62 1.81759359529874964e+00
51 62 1.83416404494379726e+00
52 62 1.84953338915418364e+00
53 62 1.86370753553766133e+00
54 62 1.87669449993550352e+00
55 62 1.88850431919790274e+00
56 62 1.89914895774716141e+00
57 62 1.90864220879732249e+00
58 62 1.91699959110104068e+00
59 62 1.92423824208711203e+00
60 62 1.93037680823573976e+00
61 62 1.93543533351429975e+00
62 62 1.93943514666478101e+00
63 62 1.94239874809629876e+00
64 62 1.94434969709297012e+00
65 62 1.94531250000000067e+00
66 62 1.94531250000000000e+00
1 63 0.00000000000000000e+00
2 63 2.17651102646286634e-02
3 63 6.54801769688399954e-02
4 63 1.09550462082023528e-01
5 63 1.53946397278317715e-01
6 63 1.98636795340567773e-01
7 63 2.43588873287569396e-01
8 63 2.88768283929814351e-01
9 63 3.34139156154978523e-01
10 63 3.79664144189743646e-01
11 63 4.25304486023049877e-01
12 63 4.71020071107841221e-01
13 63 5.16769517384207178e-01
14 63 5.62510257587145013e-01
15 63 6.08198634717665887e-01
16 63 6.53790006467547591e-01
17 63 6.99238858296643562e-01
18 63 7.44498924768502213e-01
19 63 7.89523318656293438e-01
20 63 8.34264667238079127e-01
21 63 8.78675255109677478e-01
22 63 9.22707172756238925e-01
23 63 9.66312470041621574e-01
24 63 1.00944331369921936e+00
25 63 1.05205214784045986e+00
26 63 1.09409185643908646e+00
27 63 1.13551592670180290e+00
28 63 1.17627861219999130e+00
29 63 1.21633509461387734e+00
30 63 1.25564164293046754e+00
31 63 1.29415576894028606e+00
32 63 1.33183637789561637e+00
33 63 1.36864391322465218e+00
34 63 1.40454049424133953e+00
35 63 1.43949004584930740e+00
36 63 1.47345841930928434e+00
37 63 1.50641350322185708e+00
38 63 1.53832532397003829e+00
39 63 1.56916613496756296e+00
40 63 1.59891049416745679e+00
41 63 1.62753532939964840e+00
42 63 1.65501999122434951e+00
43 63 1.68134629310790085e+00
44 63 1.70649853884785618e+00
45 63 1.73046353729261138e+00
46 63 1.75323060451599910e+00
47 63 1.77479155371759534e+00
48 63 1.79514067322332393e+00
49 63 1.81427469305719535e+00
50 63 1.83219274064251492e+00
51 63 1.84889628626864710e+00
52 63 1.86438907902690820e+00
53 63 1.87867707397571482e+00
54 63 1.89176835134060761e+00
55 63 1.90367302858905041e+00
56 63 1.91440316624312268e+00
57 63 1.92397266830573455e+00
58 63 1.93239717817815726e+00
59 63 1.93969397093921714e+00
60 63 1.94588184284004284e+00
61 63 1.95098099884373188e+00
62 63 1.95501293900746997e+00
63 63 1.95800034446655036e+00
64 63 1.95996696373628709e+00
65 63 1.96093750000000044e+00
66 63 1.96093750000000000e+00
1 64 0.00000000000000000e+00
2 64 2.19385374380520019e-02
3 64 6.60019313669980845e-02
4 64 1.10423374130485863e-01
5 64 1.55173061798463657e-01
6 64 2.00219558650054363e-01
7 64 2.45529820485079903e-01
8 64 2.91069226431247108e-01
9 64 3.36801619550635756e-01
10 64 3.82689356494044397e-01
11 64 4.28693366389767405e-01
12 64 4.74773219084796194e-01
13 64 5.20887202781690983e-01
14 64 5.66992411034054511e-01
15 64 6.13044838978364481e-01
16 64 6.58999488590795046e-01
17 64 7.04810482665541138e-01
18 64 7.50431187117255316e-01
19 64 7.95814341115706259e-01
20 64 8.40912194467067886e-01
21 64 8.85676651564734740e-01
22 64 9.30059421144734944e-01
23 64 9.74012170998128535e-01
24 64 1.01748668671674292e+00
25 64 1.06043503348062296e+00
26 64 1.10280971983700748e+00
27 64 1.14456386237273366e+00
28 64 1.18565135014580814e+00
29 64 1.22602700771837037e+00
30 64 1.26564675562314055e+00
31 64 1.30446776709917267e+00
32 64 1.34244861995056142e+00
33 64 1.37954944241369315e+00
34 64 1.41573205196437812e+00
35 64 1.45096008605527804e+00
36 64 1.48519912384561326e+00
37 64 1.51841679806824614e+00
38 64 1.55058289627258827e+00
39 64 1.58166945078403764e+00
40 64 1.61165081683014599e+00
41 64 1.64050373839884900e+00
42 64 1.66820740151298996e+00
43 64 1.69474347472629039e+00
44 64 1.72009613676696271e+00
45 64 1.74425209137462423e+00
46 64 1.76720056949222215e+00
47 64 1.78893331908586317e+00
48 64 1.80944458297012334e+00
49 64 1.82873106511342809e+00
50 64 1.84679188598627975e+00
51 64 1.86362852759349695e+00
52 64 1.87924476889963255e+00
53 64 1.89364661241376830e+00
54 64 1.90684220274571214e+00
55 64 1.91884173798019830e+00
56 64 1.92965737473908372e+00
57 64 1.93930312781414660e+00
58 64 1.94779476525527406e+00
59 64 1.95514969979132247e+00
60 64 1.96138687744434592e+00
61 64 1.96652666417316424e+00
62 64 1.97059073135015894e+00
63 64 1.97360194083680152e+00
64 64 1.97558423037960429e+00
65 64 1.97656250000000022e+00
66 64 1.97656250000000000e+00
1 65 0.00000000000000000e+00
2 65 2.21119646114753404e-02
3 65 6.65236857651561736e-02
4 65 1.11296286178948212e-01
5 65 1.56399726318609628e-01
6 65 2.01802321959540981e-01
7 65 2.47470767682590409e-01
8 65 2.93370168932679865e-01
9 65 3.39464082946292933e-01
10 65 3.85714568798345092e-01
11 65 4.32082246756484989e-01
12 65 4.78526367061751057e-01
13 65 5.25004888179174678e-01
14 65 5.71474564480964009e-01
15 65 6.17891043239063076e-01
16 65 6.64208970714042390e-01
17 65 7.10382107034438715e-01
18 65 7.56363449466008197e-01
19 65 8.02105363575118968e-01
20 65 8.47559721696056645e-01
21 65 8.92678048019792003e-01
22 65 9.37411669533230962e-01
23 65 9.81711871954635495e-01
24 65 1.02553005973426647e+00
25 65 1.06881791912078605e+00
26 65 1.11152758323492851e+00
27 65 1.15361179804366443e+00
28 65 1.19502408809162475e+00
29 65 1.23571892082286339e+00
30 65 1.27565186831581379e+00
31 65 1.31477976525805951e+00
32 65 1.35306086200550668e+00
33 65 1.39045497160273412e+00
34 65 1.42692360968741672e+00
35 65 1.46243012626124846e+00
36 65 1.49693982838194217e+00
37 65 1.53042009291463543e+00
38 65 1.56284046857513848e+00
39 65 1.59417276660051210e+00
40 65 1.62439113949283498e+00
41 65 1.65347214739804915e+00
42 65 1.68139481180163020e+00
43 65 1.70814065634468015e+00
44 65 1.73369373468606924e+00
45 65 1.75804064545663685e+00
46 65 1.78117053446844520e+00
47 65 1.80307508445413078e+00
48 65 1.82374849271692252e+00
49 65 1.84318743716966060e+00
50 65 1.86139103133004480e+00
51 65 1.87836076891834680e+00
52 65 1.89410045877235689e+00
53 65 1.90861615085182179e+00
54 65 1.92191605415081646e+00
55 65 1.93401044737134598e+00
56 65 1.94491158323504476e+00
57 65 1.95463358732255865e+00
58 65 1.96319235233239087e+00
59 65 1.97060542864342780e+00
60 65 1.97689191204864900e+00
61 65 1.98207232950259638e+00
62 65 1.98616852369284791e+00
63 65 1.98920353720705290e+00
64 65 1.99120149702292126e+00
65 65 1.99218750000000000e+00
66 65 1.99218750000000000e+00
1 66 0.00000000000000000e+00
2 66 2.21986781981870045e-02
3 66 6.67845629642352112e-02
4 66 1.11732742203179372e-01
5 66 1.57013058578682585e-01
6 66 2.02593703614284276e-01
7 66 2.48441241281345676e-01
8 66 2.94520640183396243e-01
9 66 3.40795314644121550e-01
10 66 3.87227174950495523e-01
11 66 4.33776686939843781e-01
12 66 4.80402941050228571e-01
13 66 5.27063730877916581e-01
14 66 5.73715641204418647e-01
15 66 6.20314145369412318e-01
16 66 6.66813711775666174e-01
17 66 7.13167919218887558e-01
18 66 7.59329580640384805e-01
19 66 8.05250874804825378e-01
20 66 8.50883485310550913e-01
21 66 8.96178746247320523e-01
22 66 9.41087793727478972e-01
23 66 9.85561722432888976e-01
24 66 1.02955174624302837e+00
25 66 1.07300936194086760e+00
26 66 1.11588651493388902e+00
27 66 1.15813576587912981e+00
28 66 1.19971045706453316e+00
29 66 1.24056487737510990e+00
30 66 1.28065442466215029e+00
31 66 1.31993576433750293e+00
32 66 1.35836698303297920e+00
33 66 1.39590773619725472e+00
34 66 1.43251938854893601e+00
35 66 1.46816514636423379e+00
36 66 1.50281018065010685e+00
37 66 1.53642174033782997e+00
38 66 1.56896925472641358e+00
39 66 1.60042442450874955e+00
40 66 1.63076130082417947e+00
41 66 1.65995635189764923e+00
42 66 1.68798851694595031e+00
43 66 1.71483924715387470e+00
44 66 1.74049253364562251e+00
45 66 1.76493492249764294e+00
46 66 1.78815551695655639e+00
47 66 1.81014596713826470e+00
48 66 1.83090044759032211e+00
49 66 1.85041562319777686e+00
50 66 1.86869060400192732e+00
51 66 1.88572688958077150e+00
52 66 1.90152830370871895e+00
53 66 1.91610092007084831e+00
54 66 1.92945297985336905e+00
55 66 1.94159480206692003e+00
56 66 1.95253868748302550e+00
57 66 1.96229881707676479e+00
58 66 1.97089114587094949e+00
59 66 1.97833329306948058e+00
60 66 1.98464442935080077e+00
61 66 1.98984516216731233e+00
62 66 1.99395741986419250e+00
63 66 1.99700433539217848e+00
64 66 1.99901013034457975e+00
65 66 2.00000000000000000e+00
66 66 2.00000000000000000e+00
