%%MatrixMarket matrix coordinate  real general
1 69 69
1 1 0.00000000000000000e+00
1 2 0.00000000000000000e+00
1 3 0.00000000000000000e+00
1 4 1.56250000000000000e-02
1 5 3.12500000000000000e-02
1 6 4.68750000000000000e-02
1 7 6.25000000000000000e-02
1 8 7.81250000000000000e-02
1 9 9.37500000000000000e-02
1 10 1.09375000000000000e-01
1 11 1.25000000000000000e-01
1 12 1.40625000000000000e-01
1 13 1.56250000000000000e-01
1 14 1.71875000000000000e-01
1 15 1.87500000000000000e-01
1 16 2.03125000000000000e-01
1 17 2.18750000000000000e-01
1 18 2.34375000000000000e-01
1 19 2.50000000000000000e-01
1 20 2.65625000000000000e-01
1 21 2.81250000000000000e-01
1 22 2.96875000000000000e-01
1 23 3.12500000000000000e-01
1 24 3.28125000000000000e-01
1 25 3.43750000000000000e-01
1 26 3.59375000000000000e-01
1 27 3.75000000000000000e-01
1 28 3.90625000000000000e-01
1 29 4.06250000000000000e-01
1 30 4.21875000000000000e-01
1 31 4.37500000000000000e-01
1 32 4.53125000000000000e-01
1 33 4.68750000000000000e-01
1 34 4.84375000000000000e-01
1 35 5.00000000000000000e-01
1 36 5.15625000000000000e-01
1 37 5.31250000000000000e-01
1 38 5.46875000000000000e-01
1 39 5.62500000000000000e-01
1 40 5.78125000000000000e-01
1 41 5.93750000000000000e-01
1 42 6.09375000000000000e-01
1 43 6.25000000000000000e-01
1 44 6.40625000000000000e-01
1 45 6.56250000000000000e-01
1 46 6.71875000000000000e-01
1 47 6.87500000000000000e-01
1 48 7.03125000000000000e-01
1 49 7.18750000000000000e-01
1 50 7.34375000000000000e-01
1 51 7.50000000000000000e-01
1 52 7.65625000000000000e-01
1 53 7.81250000000000000e-01
1 54 7.96875000000000000e-01
1 55 8.12500000000000000e-01
1 56 8.28125000000000000e-01
1 57 8.43750000000000000e-01
1 58 8.59375000000000000e-01
1 59 8.75000000000000000e-01
1 60 8.90625000000000000e-01
1 61 9.06250000000000000e-01
1 62 9.21875000000000000e-01
1 63 9.37500000000000000e-01
1 64 9.53125000000000000e-01
1 65 9.68750000000000000e-01
1 66 9.84375000000000000e-01
1 67 1.00000000000000000e+00
1 68 1.00000000000000000e+00
1 69 1.00000000000000000e+00
