%%MatrixMarket matrix coordinate  real general
66 66 4356
1 1 1.00000000000000000e+00
2 1 9.95423543456039894e-01
3 1 9.86556658902117078e-01
4 1 9.77975802882191658e-01
5 1 9.69680975396263967e-01
6 1 9.61672176444333671e-01
7 1 9.53949406026400770e-01
8 1 9.46512664142465487e-01
9 1 9.39361950792527711e-01
10 1 9.32497265976587553e-01
11 1 9.25918609694644790e-01
12 1 9.19625981946699644e-01
13 1 9.13619382732751895e-01
14 1 9.07898812052801651e-01
15 1 9.02464269906848915e-01
16 1 8.97315756294893685e-01
17 1 8.92453271216935962e-01
18 1 8.87876814672975745e-01
19 1 8.83586386663013146e-01
20 1 8.79581987187048053e-01
21 1 8.75863616245080467e-01
22 1 8.72431273837110277e-01
23 1 8.69284959963137704e-01
24 1 8.66424674623162527e-01
25 1 8.63850417817184968e-01
26 1 8.61562189545204915e-01
27 1 8.59559989807222258e-01
28 1 8.57843818603237107e-01
29 1 8.56413675933249574e-01
30 1 8.55269561797259548e-01
31 1 8.54411476195266917e-01
32 1 8.53839419127271793e-01
33 1 8.53553390593274286e-01
34 1 8.53553390593274175e-01
35 1 8.53839419127271682e-01
36 1 8.54411476195266695e-01
37 1 8.55269561797259215e-01
38 1 8.56413675933249241e-01
39 1 8.57843818603236774e-01
40 1 8.59559989807221814e-01
41 1 8.61562189545204360e-01
42 1 8.63850417817184524e-01
43 1 8.66424674623162083e-01
44 1 8.69284959963137260e-01
45 1 8.72431273837109833e-01
46 1 8.75863616245079912e-01
47 1 8.79581987187047609e-01
48 1 8.83586386663012702e-01
49 1 8.87876814672975301e-01
50 1 8.92453271216935518e-01
51 1 8.97315756294893241e-01
52 1 9.02464269906848471e-01
53 1 9.07898812052801207e-01
54 1 9.13619382732751451e-01
55 1 9.19625981946699089e-01
56 1 9.25918609694644457e-01
57 1 9.32497265976587220e-01
58 1 9.39361950792527489e-01
59 1 9.46512664142465265e-01
60 1 9.53949406026400659e-01
61 1 9.61672176444333449e-01
62 1 9.69680975396263745e-01
63 1 9.77975802882191547e-01
64 1 9.86556658902116967e-01
65 1 9.95423543456039783e-01
66 1 1.00000000000000000e+00
1 2 1.00000000000000000e+00
2 2 9.95423543456039894e-01
3 2 9.86556658902117078e-01
4 2 9.77975802882191658e-01
5 2 9.69680975396264078e-01
6 2 9.61672176444333782e-01
7 2 9.53949406026400881e-01
8 2 9.46512664142465487e-01
9 2 9.39361950792527711e-01
10 2 9.32497265976587553e-01
11 2 9.25918609694644790e-01
12 2 9.19625981946699644e-01
13 2 9.13619382732751895e-01
14 2 9.07898812052801762e-01
15 2 9.02464269906849026e-01
16 2 8.97315756294893685e-01
17 2 8.92453271216935962e-01
18 2 8.87876814672975856e-01
19 2 8.83586386663013146e-01
20 2 8.79581987187048053e-01
21 2 8.75863616245080578e-01
22 2 8.72431273837110277e-01
23 2 8.69284959963137815e-01
24 2 8.66424674623162527e-01
25 2 8.63850417817185079e-01
26 2 8.61562189545205026e-01
27 2 8.59559989807222369e-01
28 2 8.57843818603237107e-01
29 2 8.56413675933249574e-01
30 2 8.55269561797259659e-01
31 2 8.54411476195267028e-01
32 2 8.53839419127271904e-01
33 2 8.53553390593274397e-01
34 2 8.53553390593274175e-01
35 2 8.53839419127271682e-01
36 2 8.54411476195266695e-01
37 2 8.55269561797259215e-01
38 2 8.56413675933249241e-01
39 2 8.57843818603236885e-01
40 2 8.59559989807221814e-01
41 2 8.61562189545204360e-01
42 2 8.63850417817184635e-01
43 2 8.66424674623162083e-01
44 2 8.69284959963137371e-01
45 2 8.72431273837109833e-01
46 2 8.75863616245080023e-01
47 2 8.79581987187047720e-01
48 2 8.83586386663012813e-01
49 2 8.87876814672975301e-01
50 2 8.92453271216935518e-01
51 2 8.97315756294893241e-01
52 2 9.02464269906848471e-01
53 2 9.07898812052801318e-01
54 2 9.13619382732751451e-01
55 2 9.19625981946699200e-01
56 2 9.25918609694644568e-01
57 2 9.32497265976587331e-01
58 2 9.39361950792527489e-01
59 2 9.46512664142465376e-01
60 2 9.53949406026400659e-01
61 2 9.61672176444333560e-01
62 2 9.69680975396263856e-01
63 2 9.77975802882191547e-01
64 2 9.86556658902116967e-01
65 2 9.95423543456039894e-01
66 2 1.00000000000000000e+00
1 3 1.00000000000000000e+00
2 3 9.95423543456039894e-01
3 3 9.86556658902117078e-01
4 3 9.77975802882191658e-01
5 3 9.69680975396264078e-01
6 3 9.61672176444333893e-01
7 3 9.53949406026400881e-01
8 3 9.46512664142465487e-01
9 3 9.39361950792527711e-01
10 3 9.32497265976587664e-01
11 3 9.25918609694644790e-01
12 3 9.19625981946699644e-01
13 3 9.13619382732752006e-01
14 3 9.07898812052801762e-01
15 3 9.02464269906849026e-01
16 3 8.97315756294893685e-01
17 3 8.92453271216935962e-01
18 3 8.87876814672975856e-01
19 3 8.83586386663013146e-01
20 3 8.79581987187048053e-01
21 3 8.75863616245080578e-01
22 3 8.72431273837110277e-01
23 3 8.69284959963137815e-01
24 3 8.66424674623162527e-01
25 3 8.63850417817185079e-01
26 3 8.61562189545205026e-01
27 3 8.59559989807222369e-01
28 3 8.57843818603237218e-01
29 3 8.56413675933249463e-01
30 3 8.55269561797259659e-01
31 3 8.54411476195267028e-01
32 3 8.53839419127271904e-01
33 3 8.53553390593274397e-01
34 3 8.53553390593274175e-01
35 3 8.53839419127271682e-01
36 3 8.54411476195266695e-01
37 3 8.55269561797259326e-01
38 3 8.56413675933249241e-01
39 3 8.57843818603236885e-01
40 3 8.59559989807221814e-01
41 3 8.61562189545204360e-01
42 3 8.63850417817184857e-01
43 3 8.66424674623162083e-01
44 3 8.69284959963137371e-01
45 3 8.72431273837109833e-01
46 3 8.75863616245080134e-01
47 3 8.79581987187047831e-01
48 3 8.83586386663012924e-01
49 3 8.87876814672975301e-01
50 3 8.92453271216935518e-01
51 3 8.97315756294893241e-01
52 3 9.02464269906848360e-01
53 3 9.07898812052801318e-01
54 3 9.13619382732751562e-01
55 3 9.19625981946699200e-01
56 3 9.25918609694644568e-01
57 3 9.32497265976587331e-01
58 3 9.39361950792527489e-01
59 3 9.46512664142465487e-01
60 3 9.53949406026400770e-01
61 3 9.61672176444333671e-01
62 3 9.69680975396263856e-01
63 3 9.77975802882191436e-01
64 3 9.86556658902116967e-01
65 3 9.95423543456039894e-01
66 3 1.00000000000000000e+00
1 4 1.00000000000000000e+00
2 4 9.95423543456039894e-01
3 4 9.86556658902117078e-01
4 4 9.77975802882191658e-01
5 4 9.69680975396264078e-01
6 4 9.61672176444333893e-01
7 4 9.53949406026400881e-01
8 4 9.46512664142465487e-01
9 4 9.39361950792527711e-01
10 4 9.32497265976587775e-01
11 4 9.25918609694644790e-01
12 4 9.19625981946699644e-01
13 4 9.13619382732752006e-01
14 4 9.07898812052801762e-01
15 4 9.02464269906849137e-01
16 4 8.97315756294893685e-01
17 4 8.92453271216935851e-01
18 4 8.87876814672975856e-01
19 4 8.83586386663013146e-01
20 4 8.79581987187048053e-01
21 4 8.75863616245080578e-01
22 4 8.72431273837110277e-01
23 4 8.69284959963137815e-01
24 4 8.66424674623162527e-01
25 4 8.63850417817185079e-01
26 4 8.61562189545205026e-01
27 4 8.59559989807222258e-01
28 4 8.57843818603237218e-01
29 4 8.56413675933249574e-01
30 4 8.55269561797259659e-01
31 4 8.54411476195267028e-01
32 4 8.53839419127271793e-01
33 4 8.53553390593274397e-01
34 4 8.53553390593274175e-01
35 4 8.53839419127271793e-01
36 4 8.54411476195266806e-01
37 4 8.55269561797259326e-01
38 4 8.56413675933249241e-01
39 4 8.57843818603236885e-01
40 4 8.59559989807221925e-01
41 4 8.61562189545204360e-01
42 4 8.63850417817184857e-01
43 4 8.66424674623162083e-01
44 4 8.69284959963137371e-01
45 4 8.72431273837109833e-01
46 4 8.75863616245080134e-01
47 4 8.79581987187047831e-01
48 4 8.83586386663012924e-01
49 4 8.87876814672975412e-01
50 4 8.92453271216935518e-01
51 4 8.97315756294893241e-01
52 4 9.02464269906848471e-01
53 4 9.07898812052801318e-01
54 4 9.13619382732751673e-01
55 4 9.19625981946699200e-01
56 4 9.25918609694644568e-01
57 4 9.32497265976587331e-01
58 4 9.39361950792527489e-01
59 4 9.46512664142465376e-01
60 4 9.53949406026400770e-01
61 4 9.61672176444333671e-01
62 4 9.69680975396263856e-01
63 4 9.77975802882191547e-01
64 4 9.86556658902116856e-01
65 4 9.95423543456039894e-01
66 4 1.00000000000000000e+00
1 5 1.00000000000000000e+00
2 5 9.95423543456039894e-01
3 5 9.86556658902117078e-01
4 5 9.77975802882191547e-01
5 5 9.69680975396264078e-01
6 5 9.61672176444333893e-01
7 5 9.53949406026400881e-01
8 5 9.46512664142465487e-01
9 5 9.39361950792527711e-01
10 5 9.32497265976587775e-01
11 5 9.25918609694644679e-01
12 5 9.19625981946699644e-01
13 5 9.13619382732752006e-01
14 5 9.07898812052801762e-01
15 5 9.02464269906849137e-01
16 5 8.97315756294893685e-01
17 5 8.92453271216935740e-01
18 5 8.87876814672975856e-01
19 5 8.83586386663013146e-01
20 5 8.79581987187048053e-01
21 5 8.75863616245080578e-01
22 5 8.72431273837110277e-01
23 5 8.69284959963137815e-01
24 5 8.66424674623162527e-01
25 5 8.63850417817185079e-01
26 5 8.61562189545205026e-01
27 5 8.59559989807222147e-01
28 5 8.57843818603237218e-01
29 5 8.56413675933249574e-01
30 5 8.55269561797259659e-01
31 5 8.54411476195267028e-01
32 5 8.53839419127271793e-01
33 5 8.53553390593274397e-01
34 5 8.53553390593274175e-01
35 5 8.53839419127271793e-01
36 5 8.54411476195266806e-01
37 5 8.55269561797259326e-01
38 5 8.56413675933249241e-01
39 5 8.57843818603236885e-01
40 5 8.59559989807221925e-01
41 5 8.61562189545204471e-01
42 5 8.63850417817184857e-01
43 5 8.66424674623162083e-01
44 5 8.69284959963137371e-01
45 5 8.72431273837109833e-01
46 5 8.75863616245080134e-01
47 5 8.79581987187047831e-01
48 5 8.83586386663012924e-01
49 5 8.87876814672975412e-01
50 5 8.92453271216935407e-01
51 5 8.97315756294893130e-01
52 5 9.02464269906848471e-01
53 5 9.07898812052801207e-01
54 5 9.13619382732751673e-01
55 5 9.19625981946699200e-01
56 5 9.25918609694644568e-01
57 5 9.32497265976587331e-01
58 5 9.39361950792527600e-01
59 5 9.46512664142465376e-01
60 5 9.53949406026400770e-01
61 5 9.61672176444333671e-01
62 5 9.69680975396263856e-01
63 5 9.77975802882191547e-01
64 5 9.86556658902116967e-01
65 5 9.95423543456039783e-01
66 5 1.00000000000000000e+00
1 6 1.00000000000000000e+00
2 6 9.95423543456039894e-01
3 6 9.86556658902117078e-01
4 6 9.77975802882191547e-01
5 6 9.69680975396264189e-01
6 6 9.61672176444333893e-01
7 6 9.53949406026400881e-01
8 6 9.46512664142465487e-01
9 6 9.39361950792527822e-01
10 6 9.32497265976587664e-01
11 6 9.25918609694644679e-01
12 6 9.19625981946699644e-01
13 6 9.13619382732751895e-01
14 6 9.07898812052801762e-01
15 6 9.02464269906849137e-01
16 6 8.97315756294893685e-01
17 6 8.92453271216935740e-01
18 6 8.87876814672975856e-01
19 6 8.83586386663013146e-01
20 6 8.79581987187048053e-01
21 6 8.75863616245080689e-01
22 6 8.72431273837110277e-01
23 6 8.69284959963137704e-01
24 6 8.66424674623162638e-01
25 6 8.63850417817185079e-01
26 6 8.61562189545205026e-01
27 6 8.59559989807222147e-01
28 6 8.57843818603237218e-01
29 6 8.56413675933249463e-01
30 6 8.55269561797259659e-01
31 6 8.54411476195267028e-01
32 6 8.53839419127271793e-01
33 6 8.53553390593274397e-01
34 6 8.53553390593274175e-01
35 6 8.53839419127271682e-01
36 6 8.54411476195266806e-01
37 6 8.55269561797259215e-01
38 6 8.56413675933249241e-01
39 6 8.57843818603236885e-01
40 6 8.59559989807221814e-01
41 6 8.61562189545204582e-01
42 6 8.63850417817184857e-01
43 6 8.66424674623162083e-01
44 6 8.69284959963137371e-01
45 6 8.72431273837109944e-01
46 6 8.75863616245080134e-01
47 6 8.79581987187047942e-01
48 6 8.83586386663012924e-01
49 6 8.87876814672975412e-01
50 6 8.92453271216935407e-01
51 6 8.97315756294893019e-01
52 6 9.02464269906848471e-01
53 6 9.07898812052801096e-01
54 6 9.13619382732751673e-01
55 6 9.19625981946699200e-01
56 6 9.25918609694644568e-01
57 6 9.32497265976587331e-01
58 6 9.39361950792527489e-01
59 6 9.46512664142465487e-01
60 6 9.53949406026400659e-01
61 6 9.61672176444333671e-01
62 6 9.69680975396263856e-01
63 6 9.77975802882191547e-01
64 6 9.86556658902117078e-01
65 6 9.95423543456039783e-01
66 6 1.00000000000000000e+00
1 7 1.00000000000000000e+00
2 7 9.95423543456039894e-01
3 7 9.86556658902117078e-01
4 7 9.77975802882191436e-01
5 7 9.69680975396264189e-01
6 7 9.61672176444333782e-01
7 7 9.53949406026400881e-01
8 7 9.46512664142465487e-01
9 7 9.39361950792527822e-01
10 7 9.32497265976587553e-01
11 7 9.25918609694644568e-01
12 7 9.19625981946699644e-01
13 7 9.13619382732751895e-01
14 7 9.07898812052801762e-01
15 7 9.02464269906849026e-01
16 7 8.97315756294893685e-01
17 7 8.92453271216935740e-01
18 7 8.87876814672975856e-01
19 7 8.83586386663013146e-01
20 7 8.79581987187048053e-01
21 7 8.75863616245080578e-01
22 7 8.72431273837110277e-01
23 7 8.69284959963137593e-01
24 7 8.66424674623162527e-01
25 7 8.63850417817185079e-01
26 7 8.61562189545205026e-01
27 7 8.59559989807222147e-01
28 7 8.57843818603237218e-01
29 7 8.56413675933249352e-01
30 7 8.55269561797259659e-01
31 7 8.54411476195267028e-01
32 7 8.53839419127271682e-01
33 7 8.53553390593274286e-01
34 7 8.53553390593274175e-01
35 7 8.53839419127271571e-01
36 7 8.54411476195266584e-01
37 7 8.55269561797259215e-01
38 7 8.56413675933249241e-01
39 7 8.57843818603236885e-01
40 7 8.59559989807221703e-01
41 7 8.61562189545204693e-01
42 7 8.63850417817184746e-01
43 7 8.66424674623162083e-01
44 7 8.69284959963137371e-01
45 7 8.72431273837109833e-01
46 7 8.75863616245080023e-01
47 7 8.79581987187047831e-01
48 7 8.83586386663012813e-01
49 7 8.87876814672975301e-01
50 7 8.92453271216935407e-01
51 7 8.97315756294893019e-01
52 7 9.02464269906848360e-01
53 7 9.07898812052801096e-01
54 7 9.13619382732751673e-01
55 7 9.19625981946699200e-01
56 7 9.25918609694644568e-01
57 7 9.32497265976587331e-01
58 7 9.39361950792527489e-01
59 7 9.46512664142465376e-01
60 7 9.53949406026400659e-01
61 7 9.61672176444333560e-01
62 7 9.69680975396263856e-01
63 7 9.77975802882191436e-01
64 7 9.86556658902117078e-01
65 7 9.95423543456039672e-01
66 7 1.00000000000000000e+00
1 8 1.00000000000000000e+00
2 8 9.95423543456039894e-01
3 8 9.86556658902117078e-01
4 8 9.77975802882191436e-01
5 8 9.69680975396264189e-01
6 8 9.61672176444333782e-01
7 8 9.53949406026400881e-01
8 8 9.46512664142465376e-01
9 8 9.39361950792527822e-01
10 8 9.32497265976587664e-01
11 8 9.25918609694644568e-01
12 8 9.19625981946699644e-01
13 8 9.13619382732751895e-01
14 8 9.07898812052801762e-01
15 8 9.02464269906849137e-01
16 8 8.97315756294893796e-01
17 8 8.92453271216935740e-01
18 8 8.87876814672975856e-01
19 8 8.83586386663013146e-01
20 8 8.79581987187048053e-01
21 8 8.75863616245080578e-01
22 8 8.72431273837110277e-01
23 8 8.69284959963137593e-01
24 8 8.66424674623162527e-01
25 8 8.63850417817185190e-01
26 8 8.61562189545205026e-01
27 8 8.59559989807222147e-01
28 8 8.57843818603237218e-01
29 8 8.56413675933249352e-01
30 8 8.55269561797259659e-01
31 8 8.54411476195267028e-01
32 8 8.53839419127271682e-01
33 8 8.53553390593274286e-01
34 8 8.53553390593274175e-01
35 8 8.53839419127271571e-01
36 8 8.54411476195266584e-01
37 8 8.55269561797259215e-01
38 8 8.56413675933249130e-01
39 8 8.57843818603236885e-01
40 8 8.59559989807221703e-01
41 8 8.61562189545204693e-01
42 8 8.63850417817184635e-01
43 8 8.66424674623162083e-01
44 8 8.69284959963137371e-01
45 8 8.72431273837109833e-01
46 8 8.75863616245080023e-01
47 8 8.79581987187047831e-01
48 8 8.83586386663012813e-01
49 8 8.87876814672975301e-01
50 8 8.92453271216935407e-01
51 8 8.97315756294893019e-01
52 8 9.02464269906848360e-01
53 8 9.07898812052801096e-01
54 8 9.13619382732751673e-01
55 8 9.19625981946699200e-01
56 8 9.25918609694644568e-01
57 8 9.32497265976587331e-01
58 8 9.39361950792527489e-01
59 8 9.46512664142465376e-01
60 8 9.53949406026400659e-01
61 8 9.61672176444333560e-01
62 8 9.69680975396263856e-01
63 8 9.77975802882191325e-01
64 8 9.86556658902117078e-01
65 8 9.95423543456039672e-01
66 8 1.00000000000000000e+00
1 9 1.00000000000000000e+00
2 9 9.95423543456039894e-01
3 9 9.86556658902117078e-01
4 9 9.77975802882191547e-01
5 9 9.69680975396264189e-01
6 9 9.61672176444333782e-01
7 9 9.53949406026400881e-01
8 9 9.46512664142465376e-01
9 9 9.39361950792527933e-01
10 9 9.32497265976587775e-01
11 9 9.25918609694644679e-01
12 9 9.19625981946699755e-01
13 9 9.13619382732751895e-01
14 9 9.07898812052801762e-01
15 9 9.02464269906849137e-01
16 9 8.97315756294893796e-01
17 9 8.92453271216935740e-01
18 9 8.87876814672975967e-01
19 9 8.83586386663013146e-01
20 9 8.79581987187048053e-01
21 9 8.75863616245080578e-01
22 9 8.72431273837110277e-01
23 9 8.69284959963137593e-01
24 9 8.66424674623162527e-01
25 9 8.63850417817185190e-01
26 9 8.61562189545205026e-01
27 9 8.59559989807222258e-01
28 9 8.57843818603237218e-01
29 9 8.56413675933249463e-01
30 9 8.55269561797259659e-01
31 9 8.54411476195267028e-01
32 9 8.53839419127271682e-01
33 9 8.53553390593274286e-01
34 9 8.53553390593274175e-01
35 9 8.53839419127271571e-01
36 9 8.54411476195266584e-01
37 9 8.55269561797259215e-01
38 9 8.56413675933249019e-01
39 9 8.57843818603236774e-01
40 9 8.59559989807221703e-01
41 9 8.61562189545204693e-01
42 9 8.63850417817184635e-01
43 9 8.66424674623162083e-01
44 9 8.69284959963137371e-01
45 9 8.72431273837109833e-01
46 9 8.75863616245080023e-01
47 9 8.79581987187047831e-01
48 9 8.83586386663012813e-01
49 9 8.87876814672975412e-01
50 9 8.92453271216935518e-01
51 9 8.97315756294893130e-01
52 9 9.02464269906848360e-01
53 9 9.07898812052801207e-01
54 9 9.13619382732751673e-01
55 9 9.19625981946699200e-01
56 9 9.25918609694644568e-01
57 9 9.32497265976587331e-01
58 9 9.39361950792527600e-01
59 9 9.46512664142465376e-01
60 9 9.53949406026400659e-01
61 9 9.61672176444333671e-01
62 9 9.69680975396263856e-01
63 9 9.77975802882191436e-01
64 9 9.86556658902117078e-01
65 9 9.95423543456039783e-01
66 9 1.00000000000000000e+00
1 10 1.00000000000000000e+00
2 10 9.95423543456039894e-01
3 10 9.86556658902117078e-01
4 10 9.77975802882191547e-01
5 10 9.69680975396264189e-01
6 10 9.61672176444333671e-01
7 10 9.53949406026400881e-01
8 10 9.46512664142465376e-01
9 10 9.39361950792527933e-01
10 10 9.32497265976587775e-01
11 10 9.25918609694644790e-01
12 10 9.19625981946699866e-01
13 10 9.13619382732751895e-01
14 10 9.07898812052801762e-01
15 10 9.02464269906849137e-01
16 10 8.97315756294893685e-01
17 10 8.92453271216935740e-01
18 10 8.87876814672975967e-01
19 10 8.83586386663013146e-01
20 10 8.79581987187048053e-01
21 10 8.75863616245080578e-01
22 10 8.72431273837110388e-01
23 10 8.69284959963137593e-01
24 10 8.66424674623162527e-01
25 10 8.63850417817185190e-01
26 10 8.61562189545205026e-01
27 10 8.59559989807222369e-01
28 10 8.57843818603237329e-01
29 10 8.56413675933249463e-01
30 10 8.55269561797259659e-01
31 10 8.54411476195267028e-01
32 10 8.53839419127271682e-01
33 10 8.53553390593274175e-01
34 10 8.53553390593274064e-01
35 10 8.53839419127271682e-01
36 10 8.54411476195266584e-01
37 10 8.55269561797259326e-01
38 10 8.56413675933249130e-01
39 10 8.57843818603236663e-01
40 10 8.59559989807221703e-01
41 10 8.61562189545204693e-01
42 10 8.63850417817184635e-01
43 10 8.66424674623162083e-01
44 10 8.69284959963137371e-01
45 10 8.72431273837109833e-01
46 10 8.75863616245080023e-01
47 10 8.79581987187047831e-01
48 10 8.83586386663012813e-01
49 10 8.87876814672975412e-01
50 10 8.92453271216935518e-01
51 10 8.97315756294893130e-01
52 10 9.02464269906848471e-01
53 10 9.07898812052801207e-01
54 10 9.13619382732751562e-01
55 10 9.19625981946699200e-01
56 10 9.25918609694644568e-01
57 10 9.32497265976587331e-01
58 10 9.39361950792527711e-01
59 10 9.46512664142465376e-01
60 10 9.53949406026400770e-01
61 10 9.61672176444333671e-01
62 10 9.69680975396263856e-01
63 10 9.77975802882191436e-01
64 10 9.86556658902117078e-01
65 10 9.95423543456039783e-01
66 10 1.00000000000000000e+00
1 11 1.00000000000000000e+00
2 11 9.95423543456039894e-01
3 11 9.86556658902117078e-01
4 11 9.77975802882191436e-01
5 11 9.69680975396264078e-01
6 11 9.61672176444333671e-01
7 11 9.53949406026400770e-01
8 11 9.46512664142465265e-01
9 11 9.39361950792527933e-01
10 11 9.32497265976587664e-01
11 11 9.25918609694644790e-01
12 11 9.19625981946699755e-01
13 11 9.13619382732751895e-01
14 11 9.07898812052801651e-01
15 11 9.02464269906849026e-01
16 11 8.97315756294893685e-01
17 11 8.92453271216935629e-01
18 11 8.87876814672975856e-01
19 11 8.83586386663013146e-01
20 11 8.79581987187048053e-01
21 11 8.75863616245080578e-01
22 11 8.72431273837110277e-01
23 11 8.69284959963137593e-01
24 11 8.66424674623162527e-01
25 11 8.63850417817185190e-01
26 11 8.61562189545204915e-01
27 11 8.59559989807222258e-01
28 11 8.57843818603237329e-01
29 11 8.56413675933249463e-01
30 11 8.55269561797259548e-01
31 11 8.54411476195267028e-01
32 11 8.53839419127271571e-01
33 11 8.53553390593274175e-01
34 11 8.53553390593274064e-01
35 11 8.53839419127271571e-01
36 11 8.54411476195266584e-01
37 11 8.55269561797259215e-01
38 11 8.56413675933249130e-01
39 11 8.57843818603236663e-01
40 11 8.59559989807221703e-01
41 11 8.61562189545204582e-01
42 11 8.63850417817184635e-01
43 11 8.66424674623162083e-01
44 11 8.69284959963137371e-01
45 11 8.72431273837109833e-01
46 11 8.75863616245080023e-01
47 11 8.79581987187047831e-01
48 11 8.83586386663012702e-01
49 11 8.87876814672975412e-01
50 11 8.92453271216935518e-01
51 11 8.97315756294893130e-01
52 11 9.02464269906848360e-01
53 11 9.07898812052801096e-01
54 11 9.13619382732751451e-01
55 11 9.19625981946699089e-01
56 11 9.25918609694644457e-01
57 11 9.32497265976587220e-01
58 11 9.39361950792527600e-01
59 11 9.46512664142465265e-01
60 11 9.53949406026400659e-01
61 11 9.61672176444333560e-01
62 11 9.69680975396263856e-01
63 11 9.77975802882191436e-01
64 11 9.86556658902117078e-01
65 11 9.95423543456039672e-01
66 11 1.00000000000000000e+00
1 12 1.00000000000000000e+00
2 12 9.95423543456039894e-01
3 12 9.86556658902117078e-01
4 12 9.77975802882191436e-01
5 12 9.69680975396264078e-01
6 12 9.61672176444333782e-01
7 12 9.53949406026400881e-01
8 12 9.46512664142465265e-01
9 12 9.39361950792527933e-01
10 12 9.32497265976587775e-01
11 12 9.25918609694644790e-01
12 12 9.19625981946699866e-01
13 12 9.13619382732751895e-01
14 12 9.07898812052801651e-01
15 12 9.02464269906849026e-01
16 12 8.97315756294893685e-01
17 12 8.92453271216935740e-01
18 12 8.87876814672975856e-01
19 12 8.83586386663013146e-01
20 12 8.79581987187048164e-01
21 12 8.75863616245080578e-01
22 12 8.72431273837110277e-01
23 12 8.69284959963137704e-01
24 12 8.66424674623162527e-01
25 12 8.63850417817185301e-01
26 12 8.61562189545205026e-01
27 12 8.59559989807222258e-01
28 12 8.57843818603237329e-01
29 12 8.56413675933249463e-01
30 12 8.55269561797259659e-01
31 12 8.54411476195267028e-01
32 12 8.53839419127271571e-01
33 12 8.53553390593274175e-01
34 12 8.53553390593274175e-01
35 12 8.53839419127271571e-01
36 12 8.54411476195266584e-01
37 12 8.55269561797259215e-01
38 12 8.56413675933249241e-01
39 12 8.57843818603236774e-01
40 12 8.59559989807221814e-01
41 12 8.61562189545204582e-01
42 12 8.63850417817184746e-01
43 12 8.66424674623162083e-01
44 12 8.69284959963137371e-01
45 12 8.72431273837109833e-01
46 12 8.75863616245080134e-01
47 12 8.79581987187047831e-01
48 12 8.83586386663012813e-01
49 12 8.87876814672975523e-01
50 12 8.92453271216935518e-01
51 12 8.97315756294893130e-01
52 12 9.02464269906848360e-01
53 12 9.07898812052801096e-01
54 12 9.13619382732751451e-01
55 12 9.19625981946699200e-01
56 12 9.25918609694644568e-01
57 12 9.32497265976587220e-01
58 12 9.39361950792527711e-01
59 12 9.46512664142465265e-01
60 12 9.53949406026400659e-01
61 12 9.61672176444333671e-01
62 12 9.69680975396263856e-01
63 12 9.77975802882191436e-01
64 12 9.86556658902117078e-01
65 12 9.95423543456039783e-01
66 12 1.00000000000000000e+00
1 13 1.00000000000000000e+00
2 13 9.95423543456039894e-01
3 13 9.86556658902117078e-01
4 13 9.77975802882191436e-01
5 13 9.69680975396264078e-01
6 13 9.61672176444333782e-01
7 13 9.53949406026400881e-01
8 13 9.46512664142465265e-01
9 13 9.39361950792527933e-01
10 13 9.32497265976587775e-01
11 13 9.25918609694644790e-01
12 13 9.19625981946699755e-01
13 13 9.13619382732752006e-01
14 13 9.07898812052801651e-01
15 13 9.02464269906849026e-01
16 13 8.97315756294893574e-01
17 13 8.92453271216935740e-01
18 13 8.87876814672975856e-01
19 13 8.83586386663013146e-01
20 13 8.79581987187048164e-01
21 13 8.75863616245080578e-01
22 13 8.72431273837110277e-01
23 13 8.69284959963137704e-01
24 13 8.66424674623162527e-01
25 13 8.63850417817185301e-01
26 13 8.61562189545205026e-01
27 13 8.59559989807222258e-01
28 13 8.57843818603237329e-01
29 13 8.56413675933249463e-01
30 13 8.55269561797259659e-01
31 13 8.54411476195266917e-01
32 13 8.53839419127271571e-01
33 13 8.53553390593274175e-01
34 13 8.53553390593274175e-01
35 13 8.53839419127271571e-01
36 13 8.54411476195266584e-01
37 13 8.55269561797259215e-01
38 13 8.56413675933249241e-01
39 13 8.57843818603236774e-01
40 13 8.59559989807221814e-01
41 13 8.61562189545204582e-01
42 13 8.63850417817184746e-01
43 13 8.66424674623162083e-01
44 13 8.69284959963137260e-01
45 13 8.72431273837109833e-01
46 13 8.75863616245080134e-01
47 13 8.79581987187047831e-01
48 13 8.83586386663012702e-01
49 13 8.87876814672975523e-01
50 13 8.92453271216935518e-01
51 13 8.97315756294893019e-01
52 13 9.02464269906848360e-01
53 13 9.07898812052800985e-01
54 13 9.13619382732751451e-01
55 13 9.19625981946699311e-01
56 13 9.25918609694644568e-01
57 13 9.32497265976587109e-01
58 13 9.39361950792527711e-01
59 13 9.46512664142465265e-01
60 13 9.53949406026400659e-01
61 13 9.61672176444333671e-01
62 13 9.69680975396263745e-01
63 13 9.77975802882191436e-01
64 13 9.86556658902117078e-01
65 13 9.95423543456039783e-01
66 13 1.00000000000000000e+00
1 14 1.00000000000000000e+00
2 14 9.95423543456039894e-01
3 14 9.86556658902117078e-01
4 14 9.77975802882191547e-01
5 14 9.69680975396264078e-01
6 14 9.61672176444333782e-01
7 14 9.53949406026400770e-01
8 14 9.46512664142465265e-01
9 14 9.39361950792527822e-01
10 14 9.32497265976587775e-01
11 14 9.25918609694644790e-01
12 14 9.19625981946699644e-01
13 14 9.13619382732752006e-01
14 14 9.07898812052801651e-01
15 14 9.02464269906849026e-01
16 14 8.97315756294893574e-01
17 14 8.92453271216935740e-01
18 14 8.87876814672975856e-01
19 14 8.83586386663013146e-01
20 14 8.79581987187048164e-01
21 14 8.75863616245080578e-01
22 14 8.72431273837110277e-01
23 14 8.69284959963137704e-01
24 14 8.66424674623162527e-01
25 14 8.63850417817185301e-01
26 14 8.61562189545205026e-01
27 14 8.59559989807222258e-01
28 14 8.57843818603237329e-01
29 14 8.56413675933249463e-01
30 14 8.55269561797259770e-01
31 14 8.54411476195266917e-01
32 14 8.53839419127271571e-01
33 14 8.53553390593274175e-01
34 14 8.53553390593274175e-01
35 14 8.53839419127271571e-01
36 14 8.54411476195266584e-01
37 14 8.55269561797259215e-01
38 14 8.56413675933249352e-01
39 14 8.57843818603236774e-01
40 14 8.59559989807221814e-01
41 14 8.61562189545204582e-01
42 14 8.63850417817184746e-01
43 14 8.66424674623162083e-01
44 14 8.69284959963137149e-01
45 14 8.72431273837109833e-01
46 14 8.75863616245080245e-01
47 14 8.79581987187047720e-01
48 14 8.83586386663012813e-01
49 14 8.87876814672975523e-01
50 14 8.92453271216935629e-01
51 14 8.97315756294893019e-01
52 14 9.02464269906848360e-01
53 14 9.07898812052800985e-01
54 14 9.13619382732751451e-01
55 14 9.19625981946699311e-01
56 14 9.25918609694644457e-01
57 14 9.32497265976587109e-01
58 14 9.39361950792527711e-01
59 14 9.46512664142465265e-01
60 14 9.53949406026400659e-01
61 14 9.61672176444333671e-01
62 14 9.69680975396263745e-01
63 14 9.77975802882191547e-01
64 14 9.86556658902117078e-01
65 14 9.95423543456039783e-01
66 14 1.00000000000000000e+00
1 15 1.00000000000000000e+00
2 15 9.95423543456039894e-01
3 15 9.86556658902116967e-01
4 15 9.77975802882191436e-01
5 15 9.69680975396264078e-01
6 15 9.61672176444333671e-01
7 15 9.53949406026400659e-01
8 15 9.46512664142465265e-01
9 15 9.39361950792527822e-01
10 15 9.32497265976587664e-01
11 15 9.25918609694644790e-01
12 15 9.19625981946699644e-01
13 15 9.13619382732751895e-01
14 15 9.07898812052801540e-01
15 15 9.02464269906849026e-01
16 15 8.97315756294893574e-01
17 15 8.92453271216935740e-01
18 15 8.87876814672975856e-01
19 15 8.83586386663013146e-01
20 15 8.79581987187048164e-01
21 15 8.75863616245080578e-01
22 15 8.72431273837110277e-01
23 15 8.69284959963137593e-01
24 15 8.66424674623162527e-01
25 15 8.63850417817185301e-01
26 15 8.61562189545205026e-01
27 15 8.59559989807222147e-01
28 15 8.57843818603237329e-01
29 15 8.56413675933249352e-01
30 15 8.55269561797259659e-01
31 15 8.54411476195266917e-01
32 15 8.53839419127271571e-01
33 15 8.53553390593274175e-01
34 15 8.53553390593274175e-01
35 15 8.53839419127271571e-01
36 15 8.54411476195266584e-01
37 15 8.55269561797259215e-01
38 15 8.56413675933249241e-01
39 15 8.57843818603236774e-01
40 15 8.59559989807221814e-01
41 15 8.61562189545204582e-01
42 15 8.63850417817184635e-01
43 15 8.66424674623161972e-01
44 15 8.69284959963137149e-01
45 15 8.72431273837109833e-01
46 15 8.75863616245080134e-01
47 15 8.79581987187047609e-01
48 15 8.83586386663012702e-01
49 15 8.87876814672975412e-01
50 15 8.92453271216935629e-01
51 15 8.97315756294892908e-01
52 15 9.02464269906848360e-01
53 15 9.07898812052800985e-01
54 15 9.13619382732751451e-01
55 15 9.19625981946699311e-01
56 15 9.25918609694644346e-01
57 15 9.32497265976587109e-01
58 15 9.39361950792527600e-01
59 15 9.46512664142465265e-01
60 15 9.53949406026400659e-01
61 15 9.61672176444333560e-01
62 15 9.69680975396263634e-01
63 15 9.77975802882191436e-01
64 15 9.86556658902116967e-01
65 15 9.95423543456039672e-01
66 15 1.00000000000000000e+00
1 16 1.00000000000000000e+00
2 16 9.95423543456039783e-01
3 16 9.86556658902116856e-01
4 16 9.77975802882191436e-01
5 16 9.69680975396264078e-01
6 16 9.61672176444333671e-01
7 16 9.53949406026400548e-01
8 16 9.46512664142465265e-01
9 16 9.39361950792527822e-01
10 16 9.32497265976587553e-01
11 16 9.25918609694644790e-01
12 16 9.19625981946699533e-01
13 16 9.13619382732751784e-01
14 16 9.07898812052801429e-01
15 16 9.02464269906849026e-01
16 16 8.97315756294893574e-01
17 16 8.92453271216935740e-01
18 16 8.87876814672975856e-01
19 16 8.83586386663013146e-01
20 16 8.79581987187048053e-01
21 16 8.75863616245080578e-01
22 16 8.72431273837110166e-01
23 16 8.69284959963137593e-01
24 16 8.66424674623162416e-01
25 16 8.63850417817185301e-01
26 16 8.61562189545204915e-01
27 16 8.59559989807222147e-01
28 16 8.57843818603237218e-01
29 16 8.56413675933249352e-01
30 16 8.55269561797259659e-01
31 16 8.54411476195266917e-01
32 16 8.53839419127271460e-01
33 16 8.53553390593274175e-01
34 16 8.53553390593274175e-01
35 16 8.53839419127271460e-01
36 16 8.54411476195266584e-01
37 16 8.55269561797259215e-01
38 16 8.56413675933249241e-01
39 16 8.57843818603236774e-01
40 16 8.59559989807221703e-01
41 16 8.61562189545204582e-01
42 16 8.63850417817184635e-01
43 16 8.66424674623161972e-01
44 16 8.69284959963137149e-01
45 16 8.72431273837109833e-01
46 16 8.75863616245080134e-01
47 16 8.79581987187047609e-01
48 16 8.83586386663012591e-01
49 16 8.87876814672975301e-01
50 16 8.92453271216935629e-01
51 16 8.97315756294892908e-01
52 16 9.02464269906848360e-01
53 16 9.07898812052800985e-01
54 16 9.13619382732751451e-01
55 16 9.19625981946699311e-01
56 16 9.25918609694644346e-01
57 16 9.32497265976587109e-01
58 16 9.39361950792527600e-01
59 16 9.46512664142465154e-01
60 16 9.53949406026400548e-01
61 16 9.61672176444333560e-01
62 16 9.69680975396263634e-01
63 16 9.77975802882191436e-01
64 16 9.86556658902116856e-01
65 16 9.95423543456039672e-01
66 16 1.00000000000000000e+00
1 17 1.00000000000000000e+00
2 17 9.95423543456039783e-01
3 17 9.86556658902116856e-01
4 17 9.77975802882191436e-01
5 17 9.69680975396264078e-01
6 17 9.61672176444333671e-01
7 17 9.53949406026400548e-01
8 17 9.46512664142465376e-01
9 17 9.39361950792527711e-01
10 17 9.32497265976587442e-01
11 17 9.25918609694644790e-01
12 17 9.19625981946699533e-01
13 17 9.13619382732751784e-01
14 17 9.07898812052801429e-01
15 17 9.02464269906849026e-01
16 17 8.97315756294893574e-01
17 17 8.92453271216935740e-01
18 17 8.87876814672975856e-01
19 17 8.83586386663013146e-01
20 17 8.79581987187047942e-01
21 17 8.75863616245080578e-01
22 17 8.72431273837110166e-01
23 17 8.69284959963137593e-01
24 17 8.66424674623162416e-01
25 17 8.63850417817185301e-01
26 17 8.61562189545204915e-01
27 17 8.59559989807222147e-01
28 17 8.57843818603237218e-01
29 17 8.56413675933249352e-01
30 17 8.55269561797259548e-01
31 17 8.54411476195266917e-01
32 17 8.53839419127271460e-01
33 17 8.53553390593274175e-01
34 17 8.53553390593274175e-01
35 17 8.53839419127271460e-01
36 17 8.54411476195266584e-01
37 17 8.55269561797259215e-01
38 17 8.56413675933249241e-01
39 17 8.57843818603236774e-01
40 17 8.59559989807221703e-01
41 17 8.61562189545204582e-01
42 17 8.63850417817184635e-01
43 17 8.66424674623161972e-01
44 17 8.69284959963137149e-01
45 17 8.72431273837109833e-01
46 17 8.75863616245080134e-01
47 17 8.79581987187047609e-01
48 17 8.83586386663012480e-01
49 17 8.87876814672975190e-01
50 17 8.92453271216935629e-01
51 17 8.97315756294892908e-01
52 17 9.02464269906848360e-01
53 17 9.07898812052800985e-01
54 17 9.13619382732751451e-01
55 17 9.19625981946699311e-01
56 17 9.25918609694644346e-01
57 17 9.32497265976587109e-01
58 17 9.39361950792527600e-01
59 17 9.46512664142465265e-01
60 17 9.53949406026400548e-01
61 17 9.61672176444333671e-01
62 17 9.69680975396263634e-01
63 17 9.77975802882191436e-01
64 17 9.86556658902116856e-01
65 17 9.95423543456039672e-01
66 17 1.00000000000000000e+00
1 18 1.00000000000000000e+00
2 18 9.95423543456039783e-01
3 18 9.86556658902116967e-01
4 18 9.77975802882191436e-01
5 18 9.69680975396264078e-01
6 18 9.61672176444333671e-01
7 18 9.53949406026400659e-01
8 18 9.46512664142465376e-01
9 18 9.39361950792527822e-01
10 18 9.32497265976587442e-01
11 18 9.25918609694644790e-01
12 18 9.19625981946699533e-01
13 18 9.13619382732751784e-01
14 18 9.07898812052801540e-01
15 18 9.02464269906849137e-01
16 18 8.97315756294893685e-01
17 18 8.92453271216935740e-01
18 18 8.87876814672975856e-01
19 18 8.83586386663013146e-01
20 18 8.79581987187047942e-01
21 18 8.75863616245080578e-01
22 18 8.72431273837110166e-01
23 18 8.69284959963137593e-01
24 18 8.66424674623162416e-01
25 18 8.63850417817185301e-01
26 18 8.61562189545204915e-01
27 18 8.59559989807222147e-01
28 18 8.57843818603237218e-01
29 18 8.56413675933249352e-01
30 18 8.55269561797259548e-01
31 18 8.54411476195267028e-01
32 18 8.53839419127271460e-01
33 18 8.53553390593274175e-01
34 18 8.53553390593274175e-01
35 18 8.53839419127271460e-01
36 18 8.54411476195266584e-01
37 18 8.55269561797259215e-01
38 18 8.56413675933249241e-01
39 18 8.57843818603236885e-01
40 18 8.59559989807221703e-01
41 18 8.61562189545204582e-01
42 18 8.63850417817184635e-01
43 18 8.66424674623161972e-01
44 18 8.69284959963137149e-01
45 18 8.72431273837109833e-01
46 18 8.75863616245080245e-01
47 18 8.79581987187047720e-01
48 18 8.83586386663012591e-01
49 18 8.87876814672975190e-01
50 18 8.92453271216935629e-01
51 18 8.97315756294892908e-01
52 18 9.02464269906848360e-01
53 18 9.07898812052800985e-01
54 18 9.13619382732751451e-01
55 18 9.19625981946699311e-01
56 18 9.25918609694644346e-01
57 18 9.32497265976587109e-01
58 18 9.39361950792527600e-01
59 18 9.46512664142465265e-01
60 18 9.53949406026400659e-01
61 18 9.61672176444333671e-01
62 18 9.69680975396263745e-01
63 18 9.77975802882191436e-01
64 18 9.86556658902116856e-01
65 18 9.95423543456039672e-01
66 18 1.00000000000000000e+00
1 19 1.00000000000000000e+00
2 19 9.95423543456039783e-01
3 19 9.86556658902117078e-01
4 19 9.77975802882191436e-01
5 19 9.69680975396264078e-01
6 19 9.61672176444333671e-01
7 19 9.53949406026400770e-01
8 19 9.46512664142465487e-01
9 19 9.39361950792527933e-01
10 19 9.32497265976587553e-01
11 19 9.25918609694644790e-01
12 19 9.19625981946699644e-01
13 19 9.13619382732751895e-01
14 19 9.07898812052801540e-01
15 19 9.02464269906849248e-01
16 19 8.97315756294893685e-01
17 19 8.92453271216935851e-01
18 19 8.87876814672975856e-01
19 19 8.83586386663013146e-01
20 19 8.79581987187048053e-01
21 19 8.75863616245080578e-01
22 19 8.72431273837110277e-01
23 19 8.69284959963137593e-01
24 19 8.66424674623162527e-01
25 19 8.63850417817185301e-01
26 19 8.61562189545204915e-01
27 19 8.59559989807222258e-01
28 19 8.57843818603237329e-01
29 19 8.56413675933249352e-01
30 19 8.55269561797259659e-01
31 19 8.54411476195267028e-01
32 19 8.53839419127271571e-01
33 19 8.53553390593274175e-01
34 19 8.53553390593274175e-01
35 19 8.53839419127271571e-01
36 19 8.54411476195266584e-01
37 19 8.55269561797259215e-01
38 19 8.56413675933249352e-01
39 19 8.57843818603236885e-01
40 19 8.59559989807221703e-01
41 19 8.61562189545204582e-01
42 19 8.63850417817184635e-01
43 19 8.66424674623161972e-01
44 19 8.69284959963137149e-01
45 19 8.72431273837109833e-01
46 19 8.75863616245080356e-01
47 19 8.79581987187047720e-01
48 19 8.83586386663012702e-01
49 19 8.87876814672975301e-01
50 19 8.92453271216935629e-01
51 19 8.97315756294893019e-01
52 19 9.02464269906848471e-01
53 19 9.07898812052801096e-01
54 19 9.13619382732751451e-01
55 19 9.19625981946699311e-01
56 19 9.25918609694644457e-01
57 19 9.32497265976587109e-01
58 19 9.39361950792527711e-01
59 19 9.46512664142465265e-01
60 19 9.53949406026400770e-01
61 19 9.61672176444333671e-01
62 19 9.69680975396263856e-01
63 19 9.77975802882191436e-01
64 19 9.86556658902116856e-01
65 19 9.95423543456039672e-01
66 19 1.00000000000000000e+00
1 20 1.00000000000000000e+00
2 20 9.95423543456039783e-01
3 20 9.86556658902117078e-01
4 20 9.77975802882191436e-01
5 20 9.69680975396264078e-01
6 20 9.61672176444333671e-01
7 20 9.53949406026400770e-01
8 20 9.46512664142465487e-01
9 20 9.39361950792527933e-01
10 20 9.32497265976587553e-01
11 20 9.25918609694644790e-01
12 20 9.19625981946699644e-01
13 20 9.13619382732752006e-01
14 20 9.07898812052801540e-01
15 20 9.02464269906849248e-01
16 20 8.97315756294893685e-01
17 20 8.92453271216935962e-01
18 20 8.87876814672975856e-01
19 20 8.83586386663013146e-01
20 20 8.79581987187048053e-01
21 20 8.75863616245080578e-01
22 20 8.72431273837110277e-01
23 20 8.69284959963137593e-01
24 20 8.66424674623162527e-01
25 20 8.63850417817185301e-01
26 20 8.61562189545204915e-01
27 20 8.59559989807222258e-01
28 20 8.57843818603237329e-01
29 20 8.56413675933249352e-01
30 20 8.55269561797259659e-01
31 20 8.54411476195267028e-01
32 20 8.53839419127271571e-01
33 20 8.53553390593274175e-01
34 20 8.53553390593274175e-01
35 20 8.53839419127271571e-01
36 20 8.54411476195266584e-01
37 20 8.55269561797259215e-01
38 20 8.56413675933249352e-01
39 20 8.57843818603236885e-01
40 20 8.59559989807221703e-01
41 20 8.61562189545204582e-01
42 20 8.63850417817184635e-01
43 20 8.66424674623161972e-01
44 20 8.69284959963137149e-01
45 20 8.72431273837109722e-01
46 20 8.75863616245080356e-01
47 20 8.79581987187047720e-01
48 20 8.83586386663012702e-01
49 20 8.87876814672975301e-01
50 20 8.92453271216935629e-01
51 20 8.97315756294893130e-01
52 20 9.02464269906848360e-01
53 20 9.07898812052801096e-01
54 20 9.13619382732751451e-01
55 20 9.19625981946699311e-01
56 20 9.25918609694644457e-01
57 20 9.32497265976587109e-01
58 20 9.39361950792527711e-01
59 20 9.46512664142465265e-01
60 20 9.53949406026400770e-01
61 20 9.61672176444333671e-01
62 20 9.69680975396263856e-01
63 20 9.77975802882191436e-01
64 20 9.86556658902116856e-01
65 20 9.95423543456039672e-01
66 20 1.00000000000000000e+00
1 21 1.00000000000000000e+00
2 21 9.95423543456039783e-01
3 21 9.86556658902117078e-01
4 21 9.77975802882191436e-01
5 21 9.69680975396264078e-01
6 21 9.61672176444333671e-01
7 21 9.53949406026400770e-01
8 21 9.46512664142465376e-01
9 21 9.39361950792527933e-01
10 21 9.32497265976587553e-01
11 21 9.25918609694644790e-01
12 21 9.19625981946699533e-01
13 21 9.13619382732752006e-01
14 21 9.07898812052801651e-01
15 21 9.02464269906849248e-01
16 21 8.97315756294893685e-01
17 21 8.92453271216935851e-01
18 21 8.87876814672975745e-01
19 21 8.83586386663013146e-01
20 21 8.79581987187048053e-01
21 21 8.75863616245080578e-01
22 21 8.72431273837110277e-01
23 21 8.69284959963137482e-01
24 21 8.66424674623162416e-01
25 21 8.63850417817185301e-01
26 21 8.61562189545204915e-01
27 21 8.59559989807222258e-01
28 21 8.57843818603237440e-01
29 21 8.56413675933249352e-01
30 21 8.55269561797259659e-01
31 21 8.54411476195267028e-01
32 21 8.53839419127271571e-01
33 21 8.53553390593274175e-01
34 21 8.53553390593274175e-01
35 21 8.53839419127271571e-01
36 21 8.54411476195266473e-01
37 21 8.55269561797259215e-01
38 21 8.56413675933249241e-01
39 21 8.57843818603236885e-01
40 21 8.59559989807221703e-01
41 21 8.61562189545204582e-01
42 21 8.63850417817184635e-01
43 21 8.66424674623161972e-01
44 21 8.69284959963137149e-01
45 21 8.72431273837109722e-01
46 21 8.75863616245080356e-01
47 21 8.79581987187047609e-01
48 21 8.83586386663012702e-01
49 21 8.87876814672975301e-01
50 21 8.92453271216935629e-01
51 21 8.97315756294893130e-01
52 21 9.02464269906848360e-01
53 21 9.07898812052801096e-01
54 21 9.13619382732751451e-01
55 21 9.19625981946699311e-01
56 21 9.25918609694644457e-01
57 21 9.32497265976587109e-01
58 21 9.39361950792527711e-01
59 21 9.46512664142465265e-01
60 21 9.53949406026400770e-01
61 21 9.61672176444333671e-01
62 21 9.69680975396263967e-01
63 21 9.77975802882191436e-01
64 21 9.86556658902116856e-01
65 21 9.95423543456039672e-01
66 21 1.00000000000000000e+00
1 22 1.00000000000000000e+00
2 22 9.95423543456039783e-01
3 22 9.86556658902117078e-01
4 22 9.77975802882191436e-01
5 22 9.69680975396264078e-01
6 22 9.61672176444333671e-01
7 22 9.53949406026400881e-01
8 22 9.46512664142465376e-01
9 22 9.39361950792527933e-01
10 22 9.32497265976587553e-01
11 22 9.25918609694644790e-01
12 22 9.19625981946699533e-01
13 22 9.13619382732752006e-01
14 22 9.07898812052801651e-01
15 22 9.02464269906849248e-01
16 22 8.97315756294893685e-01
17 22 8.92453271216935851e-01
18 22 8.87876814672975745e-01
19 22 8.83586386663013146e-01
20 22 8.79581987187048053e-01
21 22 8.75863616245080578e-01
22 22 8.72431273837110277e-01
23 22 8.69284959963137593e-01
24 22 8.66424674623162416e-01
25 22 8.63850417817185301e-01
26 22 8.61562189545204915e-01
27 22 8.59559989807222258e-01
28 22 8.57843818603237440e-01
29 22 8.56413675933249352e-01
30 22 8.55269561797259770e-01
31 22 8.54411476195267028e-01
32 22 8.53839419127271571e-01
33 22 8.53553390593274175e-01
34 22 8.53553390593274175e-01
35 22 8.53839419127271571e-01
36 22 8.54411476195266362e-01
37 22 8.55269561797259215e-01
38 22 8.56413675933249241e-01
39 22 8.57843818603236885e-01
40 22 8.59559989807221703e-01
41 22 8.61562189545204582e-01
42 22 8.63850417817184635e-01
43 22 8.66424674623161972e-01
44 22 8.69284959963137149e-01
45 22 8.72431273837109722e-01
46 22 8.75863616245080356e-01
47 22 8.79581987187047609e-01
48 22 8.83586386663012702e-01
49 22 8.87876814672975301e-01
50 22 8.92453271216935629e-01
51 22 8.97315756294893130e-01
52 22 9.02464269906848360e-01
53 22 9.07898812052800985e-01
54 22 9.13619382732751451e-01
55 22 9.19625981946699422e-01
56 22 9.25918609694644457e-01
57 22 9.32497265976587109e-01
58 22 9.39361950792527711e-01
59 22 9.46512664142465265e-01
60 22 9.53949406026400770e-01
61 22 9.61672176444333671e-01
62 22 9.69680975396263967e-01
63 22 9.77975802882191436e-01
64 22 9.86556658902116856e-01
65 22 9.95423543456039672e-01
66 22 1.00000000000000000e+00
1 23 1.00000000000000000e+00
2 23 9.95423543456039783e-01
3 23 9.86556658902117189e-01
4 23 9.77975802882191547e-01
5 23 9.69680975396264078e-01
6 23 9.61672176444333782e-01
7 23 9.53949406026400881e-01
8 23 9.46512664142465376e-01
9 23 9.39361950792527933e-01
10 23 9.32497265976587553e-01
11 23 9.25918609694644901e-01
12 23 9.19625981946699422e-01
13 23 9.13619382732752006e-01
14 23 9.07898812052801762e-01
15 23 9.02464269906849248e-01
16 23 8.97315756294893685e-01
17 23 8.92453271216935962e-01
18 23 8.87876814672975745e-01
19 23 8.83586386663013146e-01
20 23 8.79581987187048053e-01
21 23 8.75863616245080578e-01
22 23 8.72431273837110277e-01
23 23 8.69284959963137593e-01
24 23 8.66424674623162416e-01
25 23 8.63850417817185301e-01
26 23 8.61562189545205026e-01
27 23 8.59559989807222258e-01
28 23 8.57843818603237440e-01
29 23 8.56413675933249463e-01
30 23 8.55269561797259770e-01
31 23 8.54411476195267028e-01
32 23 8.53839419127271571e-01
33 23 8.53553390593274175e-01
34 23 8.53553390593274175e-01
35 23 8.53839419127271571e-01
36 23 8.54411476195266473e-01
37 23 8.55269561797259215e-01
38 23 8.56413675933249241e-01
39 23 8.57843818603236885e-01
40 23 8.59559989807221703e-01
41 23 8.61562189545204582e-01
42 23 8.63850417817184635e-01
43 23 8.66424674623162083e-01
44 23 8.69284959963137260e-01
45 23 8.72431273837109833e-01
46 23 8.75863616245080356e-01
47 23 8.79581987187047609e-01
48 23 8.83586386663012702e-01
49 23 8.87876814672975412e-01
50 23 8.92453271216935629e-01
51 23 8.97315756294893241e-01
52 23 9.02464269906848471e-01
53 23 9.07898812052800985e-01
54 23 9.13619382732751451e-01
55 23 9.19625981946699422e-01
56 23 9.25918609694644457e-01
57 23 9.32497265976587220e-01
58 23 9.39361950792527711e-01
59 23 9.46512664142465265e-01
60 23 9.53949406026400770e-01
61 23 9.61672176444333671e-01
62 23 9.69680975396263967e-01
63 23 9.77975802882191547e-01
64 23 9.86556658902116967e-01
65 23 9.95423543456039672e-01
66 23 1.00000000000000000e+00
1 24 1.00000000000000000e+00
2 24 9.95423543456039672e-01
3 24 9.86556658902117189e-01
4 24 9.77975802882191436e-01
5 24 9.69680975396263967e-01
6 24 9.61672176444333782e-01
7 24 9.53949406026400881e-01
8 24 9.46512664142465265e-01
9 24 9.39361950792527933e-01
10 24 9.32497265976587553e-01
11 24 9.25918609694644790e-01
12 24 9.19625981946699422e-01
13 24 9.13619382732751895e-01
14 24 9.07898812052801651e-01
15 24 9.02464269906849137e-01
16 24 8.97315756294893685e-01
17 24 8.92453271216935851e-01
18 24 8.87876814672975634e-01
19 24 8.83586386663013146e-01
20 24 8.79581987187048053e-01
21 24 8.75863616245080578e-01
22 24 8.72431273837110277e-01
23 24 8.69284959963137593e-01
24 24 8.66424674623162305e-01
25 24 8.63850417817185301e-01
26 24 8.61562189545204915e-01
27 24 8.59559989807222147e-01
28 24 8.57843818603237329e-01
29 24 8.56413675933249463e-01
30 24 8.55269561797259770e-01
31 24 8.54411476195267028e-01
32 24 8.53839419127271571e-01
33 24 8.53553390593274064e-01
34 24 8.53553390593274064e-01
35 24 8.53839419127271571e-01
36 24 8.54411476195266362e-01
37 24 8.55269561797259104e-01
38 24 8.56413675933249130e-01
39 24 8.57843818603236885e-01
40 24 8.59559989807221703e-01
41 24 8.61562189545204582e-01
42 24 8.63850417817184524e-01
43 24 8.66424674623161972e-01
44 24 8.69284959963137149e-01
45 24 8.72431273837109833e-01
46 24 8.75863616245080245e-01
47 24 8.79581987187047498e-01
48 24 8.83586386663012702e-01
49 24 8.87876814672975412e-01
50 24 8.92453271216935518e-01
51 24 8.97315756294893130e-01
52 24 9.02464269906848471e-01
53 24 9.07898812052800985e-01
54 24 9.13619382732751451e-01
55 24 9.19625981946699422e-01
56 24 9.25918609694644346e-01
57 24 9.32497265976587109e-01
58 24 9.39361950792527711e-01
59 24 9.46512664142465154e-01
60 24 9.53949406026400659e-01
61 24 9.61672176444333671e-01
62 24 9.69680975396263856e-01
63 24 9.77975802882191436e-01
64 24 9.86556658902116856e-01
65 24 9.95423543456039672e-01
66 24 1.00000000000000000e+00
1 25 1.00000000000000000e+00
2 25 9.95423543456039672e-01
3 25 9.86556658902117301e-01
4 25 9.77975802882191547e-01
5 25 9.69680975396263967e-01
6 25 9.61672176444333782e-01
7 25 9.53949406026400992e-01
8 25 9.46512664142465265e-01
9 25 9.39361950792528044e-01
10 25 9.32497265976587553e-01
11 25 9.25918609694644790e-01
12 25 9.19625981946699422e-01
13 25 9.13619382732751895e-01
14 25 9.07898812052801762e-01
15 25 9.02464269906849137e-01
16 25 8.97315756294893796e-01
17 25 8.92453271216935962e-01
18 25 8.87876814672975745e-01
19 25 8.83586386663013146e-01
20 25 8.79581987187048053e-01
21 25 8.75863616245080578e-01
22 25 8.72431273837110277e-01
23 25 8.69284959963137704e-01
24 25 8.66424674623162305e-01
25 25 8.63850417817185301e-01
26 25 8.61562189545205026e-01
27 25 8.59559989807222147e-01
28 25 8.57843818603237440e-01
29 25 8.56413675933249574e-01
30 25 8.55269561797259770e-01
31 25 8.54411476195267139e-01
32 25 8.53839419127271571e-01
33 25 8.53553390593274064e-01
34 25 8.53553390593274064e-01
35 25 8.53839419127271571e-01
36 25 8.54411476195266362e-01
37 25 8.55269561797259215e-01
38 25 8.56413675933249241e-01
39 25 8.57843818603236885e-01
40 25 8.59559989807221814e-01
41 25 8.61562189545204582e-01
42 25 8.63850417817184524e-01
43 25 8.66424674623161972e-01
44 25 8.69284959963137260e-01
45 25 8.72431273837109944e-01
46 25 8.75863616245080245e-01
47 25 8.79581987187047609e-01
48 25 8.83586386663012702e-01
49 25 8.87876814672975412e-01
50 25 8.92453271216935518e-01
51 25 8.97315756294893130e-01
52 25 9.02464269906848471e-01
53 25 9.07898812052800985e-01
54 25 9.13619382732751451e-01
55 25 9.19625981946699422e-01
56 25 9.25918609694644457e-01
57 25 9.32497265976587109e-01
58 25 9.39361950792527711e-01
59 25 9.46512664142465154e-01
60 25 9.53949406026400770e-01
61 25 9.61672176444333671e-01
62 25 9.69680975396263856e-01
63 25 9.77975802882191547e-01
64 25 9.86556658902116967e-01
65 25 9.95423543456039672e-01
66 25 1.00000000000000000e+00
1 26 1.00000000000000000e+00
2 26 9.95423543456039672e-01
3 26 9.86556658902117301e-01
4 26 9.77975802882191547e-01
5 26 9.69680975396263856e-01
6 26 9.61672176444333782e-01
7 26 9.53949406026400881e-01
8 26 9.46512664142465265e-01
9 26 9.39361950792528044e-01
10 26 9.32497265976587553e-01
11 26 9.25918609694644679e-01
12 26 9.19625981946699422e-01
13 26 9.13619382732751784e-01
14 26 9.07898812052801762e-01
15 26 9.02464269906849026e-01
16 26 8.97315756294893796e-01
17 26 8.92453271216935851e-01
18 26 8.87876814672975634e-01
19 26 8.83586386663013146e-01
20 26 8.79581987187048053e-01
21 26 8.75863616245080578e-01
22 26 8.72431273837110277e-01
23 26 8.69284959963137704e-01
24 26 8.66424674623162305e-01
25 26 8.63850417817185190e-01
26 26 8.61562189545205026e-01
27 26 8.59559989807222036e-01
28 26 8.57843818603237329e-01
29 26 8.56413675933249463e-01
30 26 8.55269561797259659e-01
31 26 8.54411476195267139e-01
32 26 8.53839419127271571e-01
33 26 8.53553390593273953e-01
34 26 8.53553390593273953e-01
35 26 8.53839419127271571e-01
36 26 8.54411476195266362e-01
37 26 8.55269561797259215e-01
38 26 8.56413675933249241e-01
39 26 8.57843818603236885e-01
40 26 8.59559989807221703e-01
41 26 8.61562189545204471e-01
42 26 8.63850417817184524e-01
43 26 8.66424674623161972e-01
44 26 8.69284959963137260e-01
45 26 8.72431273837109944e-01
46 26 8.75863616245080245e-01
47 26 8.79581987187047609e-01
48 26 8.83586386663012702e-01
49 26 8.87876814672975412e-01
50 26 8.92453271216935518e-01
51 26 8.97315756294893019e-01
52 26 9.02464269906848471e-01
53 26 9.07898812052800874e-01
54 26 9.13619382732751451e-01
55 26 9.19625981946699422e-01
56 26 9.25918609694644457e-01
57 26 9.32497265976587109e-01
58 26 9.39361950792527711e-01
59 26 9.46512664142465043e-01
60 26 9.53949406026400659e-01
61 26 9.61672176444333671e-01
62 26 9.69680975396263745e-01
63 26 9.77975802882191547e-01
64 26 9.86556658902116967e-01
65 26 9.95423543456039672e-01
66 26 1.00000000000000000e+00
1 27 1.00000000000000000e+00
2 27 9.95423543456039672e-01
3 27 9.86556658902117189e-01
4 27 9.77975802882191547e-01
5 27 9.69680975396263856e-01
6 27 9.61672176444333671e-01
7 27 9.53949406026400770e-01
8 27 9.46512664142465265e-01
9 27 9.39361950792527933e-01
10 27 9.32497265976587442e-01
11 27 9.25918609694644568e-01
12 27 9.19625981946699422e-01
13 27 9.13619382732751673e-01
14 27 9.07898812052801651e-01
15 27 9.02464269906849026e-01
16 27 8.97315756294893685e-01
17 27 8.92453271216935851e-01
18 27 8.87876814672975634e-01
19 27 8.83586386663013146e-01
20 27 8.79581987187047942e-01
21 27 8.75863616245080578e-01
22 27 8.72431273837110166e-01
23 27 8.69284959963137704e-01
24 27 8.66424674623162305e-01
25 27 8.63850417817185079e-01
26 27 8.61562189545205026e-01
27 27 8.59559989807222036e-01
28 27 8.57843818603237329e-01
29 27 8.56413675933249463e-01
30 27 8.55269561797259659e-01
31 27 8.54411476195267028e-01
32 27 8.53839419127271571e-01
33 27 8.53553390593273953e-01
34 27 8.53553390593273953e-01
35 27 8.53839419127271571e-01
36 27 8.54411476195266362e-01
37 27 8.55269561797259104e-01
38 27 8.56413675933249241e-01
39 27 8.57843818603236774e-01
40 27 8.59559989807221703e-01
41 27 8.61562189545204360e-01
42 27 8.63850417817184524e-01
43 27 8.66424674623161861e-01
44 27 8.69284959963137149e-01
45 27 8.72431273837109833e-01
46 27 8.75863616245080134e-01
47 27 8.79581987187047498e-01
48 27 8.83586386663012591e-01
49 27 8.87876814672975301e-01
50 27 8.92453271216935518e-01
51 27 8.97315756294893019e-01
52 27 9.02464269906848471e-01
53 27 9.07898812052800874e-01
54 27 9.13619382732751451e-01
55 27 9.19625981946699311e-01
56 27 9.25918609694644346e-01
57 27 9.32497265976587109e-01
58 27 9.39361950792527711e-01
59 27 9.46512664142465043e-01
60 27 9.53949406026400548e-01
61 27 9.61672176444333560e-01
62 27 9.69680975396263634e-01
63 27 9.77975802882191547e-01
64 27 9.86556658902116856e-01
65 27 9.95423543456039672e-01
66 27 1.00000000000000000e+00
1 28 1.00000000000000000e+00
2 28 9.95423543456039672e-01
3 28 9.86556658902117189e-01
4 28 9.77975802882191547e-01
5 28 9.69680975396263856e-01
6 28 9.61672176444333671e-01
7 28 9.53949406026400770e-01
8 28 9.46512664142465265e-01
9 28 9.39361950792527933e-01
10 28 9.32497265976587442e-01
11 28 9.25918609694644568e-01
12 28 9.19625981946699422e-01
13 28 9.13619382732751673e-01
14 28 9.07898812052801651e-01
15 28 9.02464269906849026e-01
16 28 8.97315756294893685e-01
17 28 8.92453271216935851e-01
18 28 8.87876814672975634e-01
19 28 8.83586386663013146e-01
20 28 8.79581987187047942e-01
21 28 8.75863616245080578e-01
22 28 8.72431273837110166e-01
23 28 8.69284959963137704e-01
24 28 8.66424674623162305e-01
25 28 8.63850417817185079e-01
26 28 8.61562189545205026e-01
27 28 8.59559989807222036e-01
28 28 8.57843818603237218e-01
29 28 8.56413675933249463e-01
30 28 8.55269561797259548e-01
31 28 8.54411476195267028e-01
32 28 8.53839419127271571e-01
33 28 8.53553390593273953e-01
34 28 8.53553390593273953e-01
35 28 8.53839419127271571e-01
36 28 8.54411476195266362e-01
37 28 8.55269561797259104e-01
38 28 8.56413675933249241e-01
39 28 8.57843818603236774e-01
40 28 8.59559989807221703e-01
41 28 8.61562189545204360e-01
42 28 8.63850417817184524e-01
43 28 8.66424674623161861e-01
44 28 8.69284959963137149e-01
45 28 8.72431273837109833e-01
46 28 8.75863616245080134e-01
47 28 8.79581987187047498e-01
48 28 8.83586386663012591e-01
49 28 8.87876814672975301e-01
50 28 8.92453271216935518e-01
51 28 8.97315756294893019e-01
52 28 9.02464269906848471e-01
53 28 9.07898812052800874e-01
54 28 9.13619382732751451e-01
55 28 9.19625981946699311e-01
56 28 9.25918609694644346e-01
57 28 9.32497265976587109e-01
58 28 9.39361950792527711e-01
59 28 9.46512664142465043e-01
60 28 9.53949406026400548e-01
61 28 9.61672176444333560e-01
62 28 9.69680975396263634e-01
63 28 9.77975802882191547e-01
64 28 9.86556658902116967e-01
65 28 9.95423543456039672e-01
66 28 1.00000000000000000e+00
1 29 1.00000000000000000e+00
2 29 9.95423543456039672e-01
3 29 9.86556658902117189e-01
4 29 9.77975802882191547e-01
5 29 9.69680975396263856e-01
6 29 9.61672176444333671e-01
7 29 9.53949406026400770e-01
8 29 9.46512664142465265e-01
9 29 9.39361950792528044e-01
10 29 9.32497265976587442e-01
11 29 9.25918609694644568e-01
12 29 9.19625981946699422e-01
13 29 9.13619382732751673e-01
14 29 9.07898812052801651e-01
15 29 9.02464269906849026e-01
16 29 8.97315756294893796e-01
17 29 8.92453271216935851e-01
18 29 8.87876814672975634e-01
19 29 8.83586386663013146e-01
20 29 8.79581987187047942e-01
21 29 8.75863616245080578e-01
22 29 8.72431273837110166e-01
23 29 8.69284959963137704e-01
24 29 8.66424674623162305e-01
25 29 8.63850417817185079e-01
26 29 8.61562189545204915e-01
27 29 8.59559989807222036e-01
28 29 8.57843818603237218e-01
29 29 8.56413675933249463e-01
30 29 8.55269561797259548e-01
31 29 8.54411476195266917e-01
32 29 8.53839419127271571e-01
33 29 8.53553390593273953e-01
34 29 8.53553390593273953e-01
35 29 8.53839419127271571e-01
36 29 8.54411476195266362e-01
37 29 8.55269561797259104e-01
38 29 8.56413675933249241e-01
39 29 8.57843818603236774e-01
40 29 8.59559989807221592e-01
41 29 8.61562189545204360e-01
42 29 8.63850417817184524e-01
43 29 8.66424674623161861e-01
44 29 8.69284959963137149e-01
45 29 8.72431273837109833e-01
46 29 8.75863616245080134e-01
47 29 8.79581987187047498e-01
48 29 8.83586386663012591e-01
49 29 8.87876814672975301e-01
50 29 8.92453271216935518e-01
51 29 8.97315756294893019e-01
52 29 9.02464269906848360e-01
53 29 9.07898812052800874e-01
54 29 9.13619382732751339e-01
55 29 9.19625981946699311e-01
56 29 9.25918609694644346e-01
57 29 9.32497265976586998e-01
58 29 9.39361950792527711e-01
59 29 9.46512664142465043e-01
60 29 9.53949406026400548e-01
61 29 9.61672176444333560e-01
62 29 9.69680975396263634e-01
63 29 9.77975802882191547e-01
64 29 9.86556658902116856e-01
65 29 9.95423543456039672e-01
66 29 1.00000000000000000e+00
1 30 1.00000000000000000e+00
2 30 9.95423543456039672e-01
3 30 9.86556658902117189e-01
4 30 9.77975802882191547e-01
5 30 9.69680975396263856e-01
6 30 9.61672176444333671e-01
7 30 9.53949406026400770e-01
8 30 9.46512664142465265e-01
9 30 9.39361950792528044e-01
10 30 9.32497265976587442e-01
11 30 9.25918609694644568e-01
12 30 9.19625981946699533e-01
13 30 9.13619382732751673e-01
14 30 9.07898812052801651e-01
15 30 9.02464269906849026e-01
16 30 8.97315756294893907e-01
17 30 8.92453271216935851e-01
18 30 8.87876814672975634e-01
19 30 8.83586386663013146e-01
20 30 8.79581987187047942e-01
21 30 8.75863616245080578e-01
22 30 8.72431273837110166e-01
23 30 8.69284959963137704e-01
24 30 8.66424674623162416e-01
25 30 8.63850417817185190e-01
26 30 8.61562189545204915e-01
27 30 8.59559989807222036e-01
28 30 8.57843818603237329e-01
29 30 8.56413675933249463e-01
30 30 8.55269561797259548e-01
31 30 8.54411476195266917e-01
32 30 8.53839419127271571e-01
33 30 8.53553390593274064e-01
34 30 8.53553390593274064e-01
35 30 8.53839419127271571e-01
36 30 8.54411476195266473e-01
37 30 8.55269561797259104e-01
38 30 8.56413675933249241e-01
39 30 8.57843818603236774e-01
40 30 8.59559989807221592e-01
41 30 8.61562189545204360e-01
42 30 8.63850417817184524e-01
43 30 8.66424674623161861e-01
44 30 8.69284959963137260e-01
45 30 8.72431273837109833e-01
46 30 8.75863616245080134e-01
47 30 8.79581987187047498e-01
48 30 8.83586386663012702e-01
49 30 8.87876814672975301e-01
50 30 8.92453271216935629e-01
51 30 8.97315756294893019e-01
52 30 9.02464269906848360e-01
53 30 9.07898812052800985e-01
54 30 9.13619382732751451e-01
55 30 9.19625981946699311e-01
56 30 9.25918609694644346e-01
57 30 9.32497265976586998e-01
58 30 9.39361950792527711e-01
59 30 9.46512664142465154e-01
60 30 9.53949406026400548e-01
61 30 9.61672176444333560e-01
62 30 9.69680975396263634e-01
63 30 9.77975802882191547e-01
64 30 9.86556658902116856e-01
65 30 9.95423543456039672e-01
66 30 1.00000000000000000e+00
1 31 1.00000000000000000e+00
2 31 9.95423543456039672e-01
3 31 9.86556658902117189e-01
4 31 9.77975802882191547e-01
5 31 9.69680975396263856e-01
6 31 9.61672176444333671e-01
7 31 9.53949406026400770e-01
8 31 9.46512664142465265e-01
9 31 9.39361950792528044e-01
10 31 9.32497265976587442e-01
11 31 9.25918609694644568e-01
12 31 9.19625981946699533e-01
13 31 9.13619382732751673e-01
14 31 9.07898812052801651e-01
15 31 9.02464269906849026e-01
16 31 8.97315756294893907e-01
17 31 8.92453271216935851e-01
18 31 8.87876814672975634e-01
19 31 8.83586386663013146e-01
20 31 8.79581987187047942e-01
21 31 8.75863616245080578e-01
22 31 8.72431273837110166e-01
23 31 8.69284959963137704e-01
24 31 8.66424674623162416e-01
25 31 8.63850417817185190e-01
26 31 8.61562189545204915e-01
27 31 8.59559989807222036e-01
28 31 8.57843818603237329e-01
29 31 8.56413675933249463e-01
30 31 8.55269561797259548e-01
31 31 8.54411476195266806e-01
32 31 8.53839419127271571e-01
33 31 8.53553390593274064e-01
34 31 8.53553390593274064e-01
35 31 8.53839419127271571e-01
36 31 8.54411476195266473e-01
37 31 8.55269561797259104e-01
38 31 8.56413675933249241e-01
39 31 8.57843818603236774e-01
40 31 8.59559989807221592e-01
41 31 8.61562189545204360e-01
42 31 8.63850417817184524e-01
43 31 8.66424674623161861e-01
44 31 8.69284959963137260e-01
45 31 8.72431273837109833e-01
46 31 8.75863616245080134e-01
47 31 8.79581987187047498e-01
48 31 8.83586386663012702e-01
49 31 8.87876814672975301e-01
50 31 8.92453271216935629e-01
51 31 8.97315756294892908e-01
52 31 9.02464269906848360e-01
53 31 9.07898812052800985e-01
54 31 9.13619382732751562e-01
55 31 9.19625981946699311e-01
56 31 9.25918609694644346e-01
57 31 9.32497265976586998e-01
58 31 9.39361950792527711e-01
59 31 9.46512664142465154e-01
60 31 9.53949406026400548e-01
61 31 9.61672176444333560e-01
62 31 9.69680975396263634e-01
63 31 9.77975802882191547e-01
64 31 9.86556658902116856e-01
65 31 9.95423543456039672e-01
66 31 1.00000000000000000e+00
1 32 1.00000000000000000e+00
2 32 9.95423543456039561e-01
3 32 9.86556658902117078e-01
4 32 9.77975802882191436e-01
5 32 9.69680975396263745e-01
6 32 9.61672176444333671e-01
7 32 9.53949406026400659e-01
8 32 9.46512664142465154e-01
9 32 9.39361950792528044e-01
10 32 9.32497265976587331e-01
11 32 9.25918609694644568e-01
12 32 9.19625981946699533e-01
13 32 9.13619382732751673e-01
14 32 9.07898812052801540e-01
15 32 9.02464269906848915e-01
16 32 8.97315756294893907e-01
17 32 8.92453271216935740e-01
18 32 8.87876814672975634e-01
19 32 8.83586386663013035e-01
20 32 8.79581987187047831e-01
21 32 8.75863616245080578e-01
22 32 8.72431273837110166e-01
23 32 8.69284959963137593e-01
24 32 8.66424674623162416e-01
25 32 8.63850417817185079e-01
26 32 8.61562189545204915e-01
27 32 8.59559989807222036e-01
28 32 8.57843818603237218e-01
29 32 8.56413675933249352e-01
30 32 8.55269561797259548e-01
31 32 8.54411476195266695e-01
32 32 8.53839419127271460e-01
33 32 8.53553390593274064e-01
34 32 8.53553390593274064e-01
35 32 8.53839419127271460e-01
36 32 8.54411476195266473e-01
37 32 8.55269561797258993e-01
38 32 8.56413675933249130e-01
39 32 8.57843818603236663e-01
40 32 8.59559989807221592e-01
41 32 8.61562189545204360e-01
42 32 8.63850417817184413e-01
43 32 8.66424674623161861e-01
44 32 8.69284959963137260e-01
45 32 8.72431273837109833e-01
46 32 8.75863616245080134e-01
47 32 8.79581987187047387e-01
48 32 8.83586386663012591e-01
49 32 8.87876814672975190e-01
50 32 8.92453271216935518e-01
51 32 8.97315756294892797e-01
52 32 9.02464269906848249e-01
53 32 9.07898812052800985e-01
54 32 9.13619382732751451e-01
55 32 9.19625981946699200e-01
56 32 9.25918609694644346e-01
57 32 9.32497265976586887e-01
58 32 9.39361950792527711e-01
59 32 9.46512664142465154e-01
60 32 9.53949406026400548e-01
61 32 9.61672176444333560e-01
62 32 9.69680975396263523e-01
63 32 9.77975802882191436e-01
64 32 9.86556658902116745e-01
65 32 9.95423543456039561e-01
66 32 1.00000000000000000e+00
1 33 1.00000000000000000e+00
2 33 9.95423543456039561e-01
3 33 9.86556658902117078e-01
4 33 9.77975802882191436e-01
5 33 9.69680975396263745e-01
6 33 9.61672176444333671e-01
7 33 9.53949406026400659e-01
8 33 9.46512664142465154e-01
9 33 9.39361950792528044e-01
10 33 9.32497265976587331e-01
11 33 9.25918609694644568e-01
12 33 9.19625981946699533e-01
13 33 9.13619382732751673e-01
14 33 9.07898812052801540e-01
15 33 9.02464269906848915e-01
16 33 8.97315756294893907e-01
17 33 8.92453271216935740e-01
18 33 8.87876814672975634e-01
19 33 8.83586386663013035e-01
20 33 8.79581987187047831e-01
21 33 8.75863616245080578e-01
22 33 8.72431273837110166e-01
23 33 8.69284959963137593e-01
24 33 8.66424674623162416e-01
25 33 8.63850417817185079e-01
26 33 8.61562189545204915e-01
27 33 8.59559989807222036e-01
28 33 8.57843818603237218e-01
29 33 8.56413675933249352e-01
30 33 8.55269561797259548e-01
31 33 8.54411476195266695e-01
32 33 8.53839419127271460e-01
33 33 8.53553390593274175e-01
34 33 8.53553390593274175e-01
35 33 8.53839419127271460e-01
36 33 8.54411476195266473e-01
37 33 8.55269561797258993e-01
38 33 8.56413675933249130e-01
39 33 8.57843818603236774e-01
40 33 8.59559989807221592e-01
41 33 8.61562189545204360e-01
42 33 8.63850417817184413e-01
43 33 8.66424674623161861e-01
44 33 8.69284959963137260e-01
45 33 8.72431273837109833e-01
46 33 8.75863616245080134e-01
47 33 8.79581987187047387e-01
48 33 8.83586386663012591e-01
49 33 8.87876814672975190e-01
50 33 8.92453271216935518e-01
51 33 8.97315756294892797e-01
52 33 9.02464269906848138e-01
53 33 9.07898812052800985e-01
54 33 9.13619382732751451e-01
55 33 9.19625981946699200e-01
56 33 9.25918609694644346e-01
57 33 9.32497265976586887e-01
58 33 9.39361950792527711e-01
59 33 9.46512664142465154e-01
60 33 9.53949406026400548e-01
61 33 9.61672176444333560e-01
62 33 9.69680975396263523e-01
63 33 9.77975802882191436e-01
64 33 9.86556658902116745e-01
65 33 9.95423543456039561e-01
66 33 1.00000000000000000e+00
1 34 1.00000000000000000e+00
2 34 9.95423543456039450e-01
3 34 9.86556658902117078e-01
4 34 9.77975802882191436e-01
5 34 9.69680975396263745e-01
6 34 9.61672176444333560e-01
7 34 9.53949406026400548e-01
8 34 9.46512664142465043e-01
9 34 9.39361950792527933e-01
10 34 9.32497265976587331e-01
11 34 9.25918609694644568e-01
12 34 9.19625981946699533e-01
13 34 9.13619382732751673e-01
14 34 9.07898812052801540e-01
15 34 9.02464269906848804e-01
16 34 8.97315756294893907e-01
17 34 8.92453271216935740e-01
18 34 8.87876814672975634e-01
19 34 8.83586386663012924e-01
20 34 8.79581987187047831e-01
21 34 8.75863616245080578e-01
22 34 8.72431273837110166e-01
23 34 8.69284959963137593e-01
24 34 8.66424674623162305e-01
25 34 8.63850417817185079e-01
26 34 8.61562189545204915e-01
27 34 8.59559989807222036e-01
28 34 8.57843818603237107e-01
29 34 8.56413675933249352e-01
30 34 8.55269561797259548e-01
31 34 8.54411476195266695e-01
32 34 8.53839419127271460e-01
33 34 8.53553390593274064e-01
34 34 8.53553390593274064e-01
35 34 8.53839419127271460e-01
36 34 8.54411476195266362e-01
37 34 8.55269561797258993e-01
38 34 8.56413675933249130e-01
39 34 8.57843818603236663e-01
40 34 8.59559989807221592e-01
41 34 8.61562189545204360e-01
42 34 8.63850417817184302e-01
43 34 8.66424674623161861e-01
44 34 8.69284959963137149e-01
45 34 8.72431273837109722e-01
46 34 8.75863616245080023e-01
47 34 8.79581987187047387e-01
48 34 8.83586386663012591e-01
49 34 8.87876814672975190e-01
50 34 8.92453271216935407e-01
51 34 8.97315756294892797e-01
52 34 9.02464269906848138e-01
53 34 9.07898812052800985e-01
54 34 9.13619382732751339e-01
55 34 9.19625981946699200e-01
56 34 9.25918609694644346e-01
57 34 9.32497265976586776e-01
58 34 9.39361950792527600e-01
59 34 9.46512664142465043e-01
60 34 9.53949406026400437e-01
61 34 9.61672176444333449e-01
62 34 9.69680975396263412e-01
63 34 9.77975802882191436e-01
64 34 9.86556658902116745e-01
65 34 9.95423543456039450e-01
66 34 1.00000000000000000e+00
1 35 1.00000000000000000e+00
2 35 9.95423543456039450e-01
3 35 9.86556658902117078e-01
4 35 9.77975802882191436e-01
5 35 9.69680975396263745e-01
6 35 9.61672176444333671e-01
7 35 9.53949406026400548e-01
8 35 9.46512664142465043e-01
9 35 9.39361950792527933e-01
10 35 9.32497265976587331e-01
11 35 9.25918609694644568e-01
12 35 9.19625981946699533e-01
13 35 9.13619382732751673e-01
14 35 9.07898812052801540e-01
15 35 9.02464269906848804e-01
16 35 8.97315756294893907e-01
17 35 8.92453271216935740e-01
18 35 8.87876814672975745e-01
19 35 8.83586386663013035e-01
20 35 8.79581987187047831e-01
21 35 8.75863616245080578e-01
22 35 8.72431273837110166e-01
23 35 8.69284959963137593e-01
24 35 8.66424674623162305e-01
25 35 8.63850417817185079e-01
26 35 8.61562189545204915e-01
27 35 8.59559989807222036e-01
28 35 8.57843818603237107e-01
29 35 8.56413675933249463e-01
30 35 8.55269561797259548e-01
31 35 8.54411476195266695e-01
32 35 8.53839419127271460e-01
33 35 8.53553390593274175e-01
34 35 8.53553390593274175e-01
35 35 8.53839419127271460e-01
36 35 8.54411476195266362e-01
37 35 8.55269561797259104e-01
38 35 8.56413675933249130e-01
39 35 8.57843818603236663e-01
40 35 8.59559989807221703e-01
41 35 8.61562189545204360e-01
42 35 8.63850417817184302e-01
43 35 8.66424674623161861e-01
44 35 8.69284959963137260e-01
45 35 8.72431273837109722e-01
46 35 8.75863616245080134e-01
47 35 8.79581987187047498e-01
48 35 8.83586386663012591e-01
49 35 8.87876814672975190e-01
50 35 8.92453271216935407e-01
51 35 8.97315756294892797e-01
52 35 9.02464269906848138e-01
53 35 9.07898812052801096e-01
54 35 9.13619382732751339e-01
55 35 9.19625981946699200e-01
56 35 9.25918609694644346e-01
57 35 9.32497265976586776e-01
58 35 9.39361950792527711e-01
59 35 9.46512664142465043e-01
60 35 9.53949406026400437e-01
61 35 9.61672176444333560e-01
62 35 9.69680975396263412e-01
63 35 9.77975802882191436e-01
64 35 9.86556658902116745e-01
65 35 9.95423543456039450e-01
66 35 1.00000000000000000e+00
1 36 1.00000000000000000e+00
2 36 9.95423543456039561e-01
3 36 9.86556658902117078e-01
4 36 9.77975802882191436e-01
5 36 9.69680975396263745e-01
6 36 9.61672176444333671e-01
7 36 9.53949406026400548e-01
8 36 9.46512664142465043e-01
9 36 9.39361950792527933e-01
10 36 9.32497265976587331e-01
11 36 9.25918609694644568e-01
12 36 9.19625981946699533e-01
13 36 9.13619382732751673e-01
14 36 9.07898812052801540e-01
15 36 9.02464269906848915e-01
16 36 8.97315756294893907e-01
17 36 8.92453271216935740e-01
18 36 8.87876814672975745e-01
19 36 8.83586386663013035e-01
20 36 8.79581987187047942e-01
21 36 8.75863616245080689e-01
22 36 8.72431273837110166e-01
23 36 8.69284959963137593e-01
24 36 8.66424674623162305e-01
25 36 8.63850417817185079e-01
26 36 8.61562189545205026e-01
27 36 8.59559989807222147e-01
28 36 8.57843818603237107e-01
29 36 8.56413675933249463e-01
30 36 8.55269561797259548e-01
31 36 8.54411476195266695e-01
32 36 8.53839419127271460e-01
33 36 8.53553390593274175e-01
34 36 8.53553390593274175e-01
35 36 8.53839419127271460e-01
36 36 8.54411476195266473e-01
37 36 8.55269561797259215e-01
38 36 8.56413675933249241e-01
39 36 8.57843818603236663e-01
40 36 8.59559989807221703e-01
41 36 8.61562189545204360e-01
42 36 8.63850417817184302e-01
43 36 8.66424674623161972e-01
44 36 8.69284959963137260e-01
45 36 8.72431273837109722e-01
46 36 8.75863616245080134e-01
47 36 8.79581987187047609e-01
48 36 8.83586386663012591e-01
49 36 8.87876814672975190e-01
50 36 8.92453271216935407e-01
51 36 8.97315756294892797e-01
52 36 9.02464269906848138e-01
53 36 9.07898812052801096e-01
54 36 9.13619382732751339e-01
55 36 9.19625981946699200e-01
56 36 9.25918609694644346e-01
57 36 9.32497265976586887e-01
58 36 9.39361950792527711e-01
59 36 9.46512664142465043e-01
60 36 9.53949406026400437e-01
61 36 9.61672176444333560e-01
62 36 9.69680975396263412e-01
63 36 9.77975802882191436e-01
64 36 9.86556658902116745e-01
65 36 9.95423543456039561e-01
66 36 1.00000000000000000e+00
1 37 1.00000000000000000e+00
2 37 9.95423543456039672e-01
3 37 9.86556658902117078e-01
4 37 9.77975802882191547e-01
5 37 9.69680975396263745e-01
6 37 9.61672176444333671e-01
7 37 9.53949406026400548e-01
8 37 9.46512664142465154e-01
9 37 9.39361950792527933e-01
10 37 9.32497265976587331e-01
11 37 9.25918609694644679e-01
12 37 9.19625981946699533e-01
13 37 9.13619382732751784e-01
14 37 9.07898812052801540e-01
15 37 9.02464269906848915e-01
16 37 8.97315756294893907e-01
17 37 8.92453271216935740e-01
18 37 8.87876814672975856e-01
19 37 8.83586386663013035e-01
20 37 8.79581987187047942e-01
21 37 8.75863616245080800e-01
22 37 8.72431273837110166e-01
23 37 8.69284959963137593e-01
24 37 8.66424674623162305e-01
25 37 8.63850417817185079e-01
26 37 8.61562189545205026e-01
27 37 8.59559989807222147e-01
28 37 8.57843818603237107e-01
29 37 8.56413675933249574e-01
30 37 8.55269561797259548e-01
31 37 8.54411476195266806e-01
32 37 8.53839419127271460e-01
33 37 8.53553390593274175e-01
34 37 8.53553390593274175e-01
35 37 8.53839419127271460e-01
36 37 8.54411476195266584e-01
37 37 8.55269561797259215e-01
38 37 8.56413675933249241e-01
39 37 8.57843818603236774e-01
40 37 8.59559989807221814e-01
41 37 8.61562189545204360e-01
42 37 8.63850417817184302e-01
43 37 8.66424674623162083e-01
44 37 8.69284959963137260e-01
45 37 8.72431273837109722e-01
46 37 8.75863616245080134e-01
47 37 8.79581987187047609e-01
48 37 8.83586386663012702e-01
49 37 8.87876814672975190e-01
50 37 8.92453271216935518e-01
51 37 8.97315756294892908e-01
52 37 9.02464269906848138e-01
53 37 9.07898812052801207e-01
54 37 9.13619382732751339e-01
55 37 9.19625981946699200e-01
56 37 9.25918609694644346e-01
57 37 9.32497265976586998e-01
58 37 9.39361950792527711e-01
59 37 9.46512664142465154e-01
60 37 9.53949406026400437e-01
61 37 9.61672176444333560e-01
62 37 9.69680975396263412e-01
63 37 9.77975802882191547e-01
64 37 9.86556658902116856e-01
65 37 9.95423543456039672e-01
66 37 1.00000000000000000e+00
1 38 1.00000000000000000e+00
2 38 9.95423543456039672e-01
3 38 9.86556658902117078e-01
4 38 9.77975802882191658e-01
5 38 9.69680975396263745e-01
6 38 9.61672176444333671e-01
7 38 9.53949406026400548e-01
8 38 9.46512664142465154e-01
9 38 9.39361950792527933e-01
10 38 9.32497265976587331e-01
11 38 9.25918609694644679e-01
12 38 9.19625981946699533e-01
13 38 9.13619382732751784e-01
14 38 9.07898812052801429e-01
15 38 9.02464269906849026e-01
16 38 8.97315756294894018e-01
17 38 8.92453271216935740e-01
18 38 8.87876814672975856e-01
19 38 8.83586386663013035e-01
20 38 8.79581987187048053e-01
21 38 8.75863616245080800e-01
22 38 8.72431273837110166e-01
23 38 8.69284959963137593e-01
24 38 8.66424674623162305e-01
25 38 8.63850417817185079e-01
26 38 8.61562189545205026e-01
27 38 8.59559989807222147e-01
28 38 8.57843818603237107e-01
29 38 8.56413675933249574e-01
30 38 8.55269561797259548e-01
31 38 8.54411476195266806e-01
32 38 8.53839419127271571e-01
33 38 8.53553390593274175e-01
34 38 8.53553390593274175e-01
35 38 8.53839419127271571e-01
36 38 8.54411476195266584e-01
37 38 8.55269561797259215e-01
38 38 8.56413675933249241e-01
39 38 8.57843818603236774e-01
40 38 8.59559989807221814e-01
41 38 8.61562189545204360e-01
42 38 8.63850417817184302e-01
43 38 8.66424674623162083e-01
44 38 8.69284959963137371e-01
45 38 8.72431273837109722e-01
46 38 8.75863616245080134e-01
47 38 8.79581987187047609e-01
48 38 8.83586386663012702e-01
49 38 8.87876814672975301e-01
50 38 8.92453271216935518e-01
51 38 8.97315756294892908e-01
52 38 9.02464269906848138e-01
53 38 9.07898812052801207e-01
54 38 9.13619382732751339e-01
55 38 9.19625981946699200e-01
56 38 9.25918609694644346e-01
57 38 9.32497265976586998e-01
58 38 9.39361950792527711e-01
59 38 9.46512664142465154e-01
60 38 9.53949406026400437e-01
61 38 9.61672176444333560e-01
62 38 9.69680975396263412e-01
63 38 9.77975802882191547e-01
64 38 9.86556658902116856e-01
65 38 9.95423543456039672e-01
66 38 1.00000000000000000e+00
1 39 1.00000000000000000e+00
2 39 9.95423543456039672e-01
3 39 9.86556658902116967e-01
4 39 9.77975802882191658e-01
5 39 9.69680975396263745e-01
6 39 9.61672176444333671e-01
7 39 9.53949406026400548e-01
8 39 9.46512664142465043e-01
9 39 9.39361950792527933e-01
10 39 9.32497265976587220e-01
11 39 9.25918609694644679e-01
12 39 9.19625981946699533e-01
13 39 9.13619382732751784e-01
14 39 9.07898812052801429e-01
15 39 9.02464269906849026e-01
16 39 8.97315756294894018e-01
17 39 8.92453271216935740e-01
18 39 8.87876814672975856e-01
19 39 8.83586386663012924e-01
20 39 8.79581987187047942e-01
21 39 8.75863616245080689e-01
22 39 8.72431273837110055e-01
23 39 8.69284959963137482e-01
24 39 8.66424674623162305e-01
25 39 8.63850417817185079e-01
26 39 8.61562189545204915e-01
27 39 8.59559989807222147e-01
28 39 8.57843818603236996e-01
29 39 8.56413675933249574e-01
30 39 8.55269561797259437e-01
31 39 8.54411476195266695e-01
32 39 8.53839419127271571e-01
33 39 8.53553390593274064e-01
34 39 8.53553390593274064e-01
35 39 8.53839419127271571e-01
36 39 8.54411476195266473e-01
37 39 8.55269561797259104e-01
38 39 8.56413675933249241e-01
39 39 8.57843818603236774e-01
40 39 8.59559989807221814e-01
41 39 8.61562189545204249e-01
42 39 8.63850417817184191e-01
43 39 8.66424674623162083e-01
44 39 8.69284959963137260e-01
45 39 8.72431273837109611e-01
46 39 8.75863616245080134e-01
47 39 8.79581987187047609e-01
48 39 8.83586386663012702e-01
49 39 8.87876814672975190e-01
50 39 8.92453271216935518e-01
51 39 8.97315756294892797e-01
52 39 9.02464269906848138e-01
53 39 9.07898812052801207e-01
54 39 9.13619382732751339e-01
55 39 9.19625981946699200e-01
56 39 9.25918609694644346e-01
57 39 9.32497265976586887e-01
58 39 9.39361950792527711e-01
59 39 9.46512664142465043e-01
60 39 9.53949406026400437e-01
61 39 9.61672176444333560e-01
62 39 9.69680975396263412e-01
63 39 9.77975802882191547e-01
64 39 9.86556658902116745e-01
65 39 9.95423543456039672e-01
66 39 1.00000000000000000e+00
1 40 1.00000000000000000e+00
2 40 9.95423543456039783e-01
3 40 9.86556658902117078e-01
4 40 9.77975802882191658e-01
5 40 9.69680975396263745e-01
6 40 9.61672176444333671e-01
7 40 9.53949406026400659e-01
8 40 9.46512664142465154e-01
9 40 9.39361950792527933e-01
10 40 9.32497265976587331e-01
11 40 9.25918609694644790e-01
12 40 9.19625981946699533e-01
13 40 9.13619382732751784e-01
14 40 9.07898812052801540e-01
15 40 9.02464269906849026e-01
16 40 8.97315756294894018e-01
17 40 8.92453271216935851e-01
18 40 8.87876814672975856e-01
19 40 8.83586386663013035e-01
20 40 8.79581987187047942e-01
21 40 8.75863616245080689e-01
22 40 8.72431273837110055e-01
23 40 8.69284959963137482e-01
24 40 8.66424674623162305e-01
25 40 8.63850417817185079e-01
26 40 8.61562189545204915e-01
27 40 8.59559989807222147e-01
28 40 8.57843818603237107e-01
29 40 8.56413675933249685e-01
30 40 8.55269561797259437e-01
31 40 8.54411476195266695e-01
32 40 8.53839419127271571e-01
33 40 8.53553390593274175e-01
34 40 8.53553390593274175e-01
35 40 8.53839419127271571e-01
36 40 8.54411476195266473e-01
37 40 8.55269561797259104e-01
38 40 8.56413675933249352e-01
39 40 8.57843818603236885e-01
40 40 8.59559989807221814e-01
41 40 8.61562189545204360e-01
42 40 8.63850417817184302e-01
43 40 8.66424674623162083e-01
44 40 8.69284959963137260e-01
45 40 8.72431273837109611e-01
46 40 8.75863616245080134e-01
47 40 8.79581987187047720e-01
48 40 8.83586386663012702e-01
49 40 8.87876814672975190e-01
50 40 8.92453271216935518e-01
51 40 8.97315756294892797e-01
52 40 9.02464269906848138e-01
53 40 9.07898812052801207e-01
54 40 9.13619382732751339e-01
55 40 9.19625981946699200e-01
56 40 9.25918609694644457e-01
57 40 9.32497265976586887e-01
58 40 9.39361950792527711e-01
59 40 9.46512664142465043e-01
60 40 9.53949406026400548e-01
61 40 9.61672176444333560e-01
62 40 9.69680975396263412e-01
63 40 9.77975802882191547e-01
64 40 9.86556658902116856e-01
65 40 9.95423543456039783e-01
66 40 1.00000000000000000e+00
1 41 1.00000000000000000e+00
2 41 9.95423543456039783e-01
3 41 9.86556658902117189e-01
4 41 9.77975802882191658e-01
5 41 9.69680975396263856e-01
6 41 9.61672176444333782e-01
7 41 9.53949406026400770e-01
8 41 9.46512664142465265e-01
9 41 9.39361950792527933e-01
10 41 9.32497265976587331e-01
11 41 9.25918609694644790e-01
12 41 9.19625981946699644e-01
13 41 9.13619382732751895e-01
14 41 9.07898812052801651e-01
15 41 9.02464269906849137e-01
16 41 8.97315756294894018e-01
17 41 8.92453271216935962e-01
18 41 8.87876814672975856e-01
19 41 8.83586386663013035e-01
20 41 8.79581987187047942e-01
21 41 8.75863616245080689e-01
22 41 8.72431273837110055e-01
23 41 8.69284959963137593e-01
24 41 8.66424674623162305e-01
25 41 8.63850417817185190e-01
26 41 8.61562189545205026e-01
27 41 8.59559989807222258e-01
28 41 8.57843818603237218e-01
29 41 8.56413675933249685e-01
30 41 8.55269561797259548e-01
31 41 8.54411476195266695e-01
32 41 8.53839419127271571e-01
33 41 8.53553390593274286e-01
34 41 8.53553390593274286e-01
35 41 8.53839419127271571e-01
36 41 8.54411476195266473e-01
37 41 8.55269561797259215e-01
38 41 8.56413675933249352e-01
39 41 8.57843818603236885e-01
40 41 8.59559989807221925e-01
41 41 8.61562189545204360e-01
42 41 8.63850417817184302e-01
43 41 8.66424674623162083e-01
44 41 8.69284959963137371e-01
45 41 8.72431273837109722e-01
46 41 8.75863616245080134e-01
47 41 8.79581987187047720e-01
48 41 8.83586386663012702e-01
49 41 8.87876814672975301e-01
50 41 8.92453271216935518e-01
51 41 8.97315756294892797e-01
52 41 9.02464269906848138e-01
53 41 9.07898812052801318e-01
54 41 9.13619382732751451e-01
55 41 9.19625981946699200e-01
56 41 9.25918609694644457e-01
57 41 9.32497265976586998e-01
58 41 9.39361950792527711e-01
59 41 9.46512664142465154e-01
60 41 9.53949406026400659e-01
61 41 9.61672176444333671e-01
62 41 9.69680975396263523e-01
63 41 9.77975802882191547e-01
64 41 9.86556658902116856e-01
65 41 9.95423543456039783e-01
66 41 1.00000000000000000e+00
1 42 1.00000000000000000e+00
2 42 9.95423543456039783e-01
3 42 9.86556658902117189e-01
4 42 9.77975802882191658e-01
5 42 9.69680975396263856e-01
6 42 9.61672176444333782e-01
7 42 9.53949406026400770e-01
8 42 9.46512664142465265e-01
9 42 9.39361950792527933e-01
10 42 9.32497265976587331e-01
11 42 9.25918609694644790e-01
12 42 9.19625981946699755e-01
13 42 9.13619382732751895e-01
14 42 9.07898812052801651e-01
15 42 9.02464269906849137e-01
16 42 8.97315756294894018e-01
17 42 8.92453271216936073e-01
18 42 8.87876814672975967e-01
19 42 8.83586386663013146e-01
20 42 8.79581987187048053e-01
21 42 8.75863616245080800e-01
22 42 8.72431273837110166e-01
23 42 8.69284959963137593e-01
24 42 8.66424674623162305e-01
25 42 8.63850417817185190e-01
26 42 8.61562189545205026e-01
27 42 8.59559989807222369e-01
28 42 8.57843818603237329e-01
29 42 8.56413675933249685e-01
30 42 8.55269561797259548e-01
31 42 8.54411476195266806e-01
32 42 8.53839419127271682e-01
33 42 8.53553390593274286e-01
34 42 8.53553390593274286e-01
35 42 8.53839419127271682e-01
36 42 8.54411476195266584e-01
37 42 8.55269561797259215e-01
38 42 8.56413675933249352e-01
39 42 8.57843818603236885e-01
40 42 8.59559989807221925e-01
41 42 8.61562189545204471e-01
42 42 8.63850417817184413e-01
43 42 8.66424674623162083e-01
44 42 8.69284959963137371e-01
45 42 8.72431273837109722e-01
46 42 8.75863616245080134e-01
47 42 8.79581987187047831e-01
48 42 8.83586386663012813e-01
49 42 8.87876814672975412e-01
50 42 8.92453271216935629e-01
51 42 8.97315756294892908e-01
52 42 9.02464269906848249e-01
53 42 9.07898812052801318e-01
54 42 9.13619382732751451e-01
55 42 9.19625981946699200e-01
56 42 9.25918609694644457e-01
57 42 9.32497265976586998e-01
58 42 9.39361950792527711e-01
59 42 9.46512664142465154e-01
60 42 9.53949406026400659e-01
61 42 9.61672176444333671e-01
62 42 9.69680975396263523e-01
63 42 9.77975802882191547e-01
64 42 9.86556658902116856e-01
65 42 9.95423543456039783e-01
66 42 1.00000000000000000e+00
1 43 1.00000000000000000e+00
2 43 9.95423543456039894e-01
3 43 9.86556658902117189e-01
4 43 9.77975802882191769e-01
5 43 9.69680975396263856e-01
6 43 9.61672176444333893e-01
7 43 9.53949406026400881e-01
8 43 9.46512664142465376e-01
9 43 9.39361950792527933e-01
10 43 9.32497265976587442e-01
11 43 9.25918609694644901e-01
12 43 9.19625981946699866e-01
13 43 9.13619382732752006e-01
14 43 9.07898812052801651e-01
15 43 9.02464269906849248e-01
16 43 8.97315756294894129e-01
17 43 8.92453271216936184e-01
18 43 8.87876814672975967e-01
19 43 8.83586386663013257e-01
20 43 8.79581987187048164e-01
21 43 8.75863616245080800e-01
22 43 8.72431273837110277e-01
23 43 8.69284959963137704e-01
24 43 8.66424674623162416e-01
25 43 8.63850417817185190e-01
26 43 8.61562189545205026e-01
27 43 8.59559989807222369e-01
28 43 8.57843818603237329e-01
29 43 8.56413675933249796e-01
30 43 8.55269561797259659e-01
31 43 8.54411476195266806e-01
32 43 8.53839419127271793e-01
33 43 8.53553390593274286e-01
34 43 8.53553390593274286e-01
35 43 8.53839419127271793e-01
36 43 8.54411476195266584e-01
37 43 8.55269561797259326e-01
38 43 8.56413675933249352e-01
39 43 8.57843818603236996e-01
40 43 8.59559989807221925e-01
41 43 8.61562189545204471e-01
42 43 8.63850417817184524e-01
43 43 8.66424674623162083e-01
44 43 8.69284959963137482e-01
45 43 8.72431273837109722e-01
46 43 8.75863616245080245e-01
47 43 8.79581987187047831e-01
48 43 8.83586386663012813e-01
49 43 8.87876814672975523e-01
50 43 8.92453271216935740e-01
51 43 8.97315756294893019e-01
52 43 9.02464269906848360e-01
53 43 9.07898812052801318e-01
54 43 9.13619382732751562e-01
55 43 9.19625981946699311e-01
56 43 9.25918609694644457e-01
57 43 9.32497265976587109e-01
58 43 9.39361950792527711e-01
59 43 9.46512664142465265e-01
60 43 9.53949406026400770e-01
61 43 9.61672176444333782e-01
62 43 9.69680975396263634e-01
63 43 9.77975802882191658e-01
64 43 9.86556658902116856e-01
65 43 9.95423543456039894e-01
66 43 1.00000000000000000e+00
1 44 1.00000000000000000e+00
2 44 9.95423543456039894e-01
3 44 9.86556658902117189e-01
4 44 9.77975802882191769e-01
5 44 9.69680975396263745e-01
6 44 9.61672176444333893e-01
7 44 9.53949406026400881e-01
8 44 9.46512664142465376e-01
9 44 9.39361950792527933e-01
10 44 9.32497265976587331e-01
11 44 9.25918609694644901e-01
12 44 9.19625981946699866e-01
13 44 9.13619382732752006e-01
14 44 9.07898812052801651e-01
15 44 9.02464269906849248e-01
16 44 8.97315756294894129e-01
17 44 8.92453271216936184e-01
18 44 8.87876814672975967e-01
19 44 8.83586386663013257e-01
20 44 8.79581987187048164e-01
21 44 8.75863616245080800e-01
22 44 8.72431273837110277e-01
23 44 8.69284959963137704e-01
24 44 8.66424674623162416e-01
25 44 8.63850417817185190e-01
26 44 8.61562189545204915e-01
27 44 8.59559989807222369e-01
28 44 8.57843818603237329e-01
29 44 8.56413675933249796e-01
30 44 8.55269561797259548e-01
31 44 8.54411476195266806e-01
32 44 8.53839419127271793e-01
33 44 8.53553390593274286e-01
34 44 8.53553390593274286e-01
35 44 8.53839419127271793e-01
36 44 8.54411476195266584e-01
37 44 8.55269561797259326e-01
38 44 8.56413675933249352e-01
39 44 8.57843818603236996e-01
40 44 8.59559989807221925e-01
41 44 8.61562189545204471e-01
42 44 8.63850417817184524e-01
43 44 8.66424674623162083e-01
44 44 8.69284959963137482e-01
45 44 8.72431273837109611e-01
46 44 8.75863616245080245e-01
47 44 8.79581987187047831e-01
48 44 8.83586386663012813e-01
49 44 8.87876814672975523e-01
50 44 8.92453271216935740e-01
51 44 8.97315756294893019e-01
52 44 9.02464269906848249e-01
53 44 9.07898812052801318e-01
54 44 9.13619382732751562e-01
55 44 9.19625981946699311e-01
56 44 9.25918609694644457e-01
57 44 9.32497265976587109e-01
58 44 9.39361950792527711e-01
59 44 9.46512664142465265e-01
60 44 9.53949406026400770e-01
61 44 9.61672176444333782e-01
62 44 9.69680975396263634e-01
63 44 9.77975802882191658e-01
64 44 9.86556658902116856e-01
65 44 9.95423543456039783e-01
66 44 1.00000000000000000e+00
1 45 1.00000000000000000e+00
2 45 9.95423543456039894e-01
3 45 9.86556658902117189e-01
4 45 9.77975802882191658e-01
5 45 9.69680975396263745e-01
6 45 9.61672176444333893e-01
7 45 9.53949406026400770e-01
8 45 9.46512664142465376e-01
9 45 9.39361950792527933e-01
10 45 9.32497265976587331e-01
11 45 9.25918609694644901e-01
12 45 9.19625981946699866e-01
13 45 9.13619382732752006e-01
14 45 9.07898812052801651e-01
15 45 9.02464269906849248e-01
16 45 8.97315756294894129e-01
17 45 8.92453271216936073e-01
18 45 8.87876814672975967e-01
19 45 8.83586386663013257e-01
20 45 8.79581987187048164e-01
21 45 8.75863616245080800e-01
22 45 8.72431273837110277e-01
23 45 8.69284959963137704e-01
24 45 8.66424674623162416e-01
25 45 8.63850417817185190e-01
26 45 8.61562189545204804e-01
27 45 8.59559989807222369e-01
28 45 8.57843818603237329e-01
29 45 8.56413675933249685e-01
30 45 8.55269561797259548e-01
31 45 8.54411476195266806e-01
32 45 8.53839419127271793e-01
33 45 8.53553390593274286e-01
34 45 8.53553390593274286e-01
35 45 8.53839419127271793e-01
36 45 8.54411476195266584e-01
37 45 8.55269561797259326e-01
38 45 8.56413675933249352e-01
39 45 8.57843818603236996e-01
40 45 8.59559989807221925e-01
41 45 8.61562189545204471e-01
42 45 8.63850417817184413e-01
43 45 8.66424674623162083e-01
44 45 8.69284959963137371e-01
45 45 8.72431273837109611e-01
46 45 8.75863616245080134e-01
47 45 8.79581987187047831e-01
48 45 8.83586386663012813e-01
49 45 8.87876814672975412e-01
50 45 8.92453271216935740e-01
51 45 8.97315756294893019e-01
52 45 9.02464269906848249e-01
53 45 9.07898812052801318e-01
54 45 9.13619382732751562e-01
55 45 9.19625981946699311e-01
56 45 9.25918609694644457e-01
57 45 9.32497265976587109e-01
58 45 9.39361950792527711e-01
59 45 9.46512664142465265e-01
60 45 9.53949406026400659e-01
61 45 9.61672176444333782e-01
62 45 9.69680975396263634e-01
63 45 9.77975802882191547e-01
64 45 9.86556658902116856e-01
65 45 9.95423543456039783e-01
66 45 1.00000000000000000e+00
1 46 1.00000000000000000e+00
2 46 9.95423543456039894e-01
3 46 9.86556658902117078e-01
4 46 9.77975802882191547e-01
5 46 9.69680975396263745e-01
6 46 9.61672176444333893e-01
7 46 9.53949406026400770e-01
8 46 9.46512664142465376e-01
9 46 9.39361950792527933e-01
10 46 9.32497265976587331e-01
11 46 9.25918609694644901e-01
12 46 9.19625981946699866e-01
13 46 9.13619382732752006e-01
14 46 9.07898812052801540e-01
15 46 9.02464269906849248e-01
16 46 8.97315756294894018e-01
17 46 8.92453271216936073e-01
18 46 8.87876814672975967e-01
19 46 8.83586386663013257e-01
20 46 8.79581987187048164e-01
21 46 8.75863616245080689e-01
22 46 8.72431273837110277e-01
23 46 8.69284959963137593e-01
24 46 8.66424674623162305e-01
25 46 8.63850417817185190e-01
26 46 8.61562189545204804e-01
27 46 8.59559989807222369e-01
28 46 8.57843818603237329e-01
29 46 8.56413675933249685e-01
30 46 8.55269561797259548e-01
31 46 8.54411476195266806e-01
32 46 8.53839419127271793e-01
33 46 8.53553390593274175e-01
34 46 8.53553390593274175e-01
35 46 8.53839419127271793e-01
36 46 8.54411476195266584e-01
37 46 8.55269561797259326e-01
38 46 8.56413675933249352e-01
39 46 8.57843818603236885e-01
40 46 8.59559989807221925e-01
41 46 8.61562189545204471e-01
42 46 8.63850417817184413e-01
43 46 8.66424674623161972e-01
44 46 8.69284959963137371e-01
45 46 8.72431273837109500e-01
46 46 8.75863616245080134e-01
47 46 8.79581987187047720e-01
48 46 8.83586386663012702e-01
49 46 8.87876814672975301e-01
50 46 8.92453271216935629e-01
51 46 8.97315756294893019e-01
52 46 9.02464269906848249e-01
53 46 9.07898812052801207e-01
54 46 9.13619382732751562e-01
55 46 9.19625981946699311e-01
56 46 9.25918609694644457e-01
57 46 9.32497265976587109e-01
58 46 9.39361950792527711e-01
59 46 9.46512664142465265e-01
60 46 9.53949406026400659e-01
61 46 9.61672176444333782e-01
62 46 9.69680975396263634e-01
63 46 9.77975802882191547e-01
64 46 9.86556658902116856e-01
65 46 9.95423543456039783e-01
66 46 1.00000000000000000e+00
1 47 1.00000000000000000e+00
2 47 9.95423543456039894e-01
3 47 9.86556658902117078e-01
4 47 9.77975802882191547e-01
5 47 9.69680975396263745e-01
6 47 9.61672176444333782e-01
7 47 9.53949406026400770e-01
8 47 9.46512664142465376e-01
9 47 9.39361950792527822e-01
10 47 9.32497265976587331e-01
11 47 9.25918609694644901e-01
12 47 9.19625981946699866e-01
13 47 9.13619382732752006e-01
14 47 9.07898812052801540e-01
15 47 9.02464269906849248e-01
16 47 8.97315756294894018e-01
17 47 8.92453271216936073e-01
18 47 8.87876814672975967e-01
19 47 8.83586386663013257e-01
20 47 8.79581987187048164e-01
21 47 8.75863616245080578e-01
22 47 8.72431273837110166e-01
23 47 8.69284959963137593e-01
24 47 8.66424674623162305e-01
25 47 8.63850417817185190e-01
26 47 8.61562189545204804e-01
27 47 8.59559989807222369e-01
28 47 8.57843818603237329e-01
29 47 8.56413675933249685e-01
30 47 8.55269561797259548e-01
31 47 8.54411476195266806e-01
32 47 8.53839419127271793e-01
33 47 8.53553390593274175e-01
34 47 8.53553390593274175e-01
35 47 8.53839419127271793e-01
36 47 8.54411476195266584e-01
37 47 8.55269561797259326e-01
38 47 8.56413675933249352e-01
39 47 8.57843818603236885e-01
40 47 8.59559989807221925e-01
41 47 8.61562189545204360e-01
42 47 8.63850417817184413e-01
43 47 8.66424674623161972e-01
44 47 8.69284959963137371e-01
45 47 8.72431273837109500e-01
46 47 8.75863616245080134e-01
47 47 8.79581987187047720e-01
48 47 8.83586386663012702e-01
49 47 8.87876814672975301e-01
50 47 8.92453271216935629e-01
51 47 8.97315756294893019e-01
52 47 9.02464269906848249e-01
53 47 9.07898812052801096e-01
54 47 9.13619382732751451e-01
55 47 9.19625981946699311e-01
56 47 9.25918609694644457e-01
57 47 9.32497265976587109e-01
58 47 9.39361950792527711e-01
59 47 9.46512664142465265e-01
60 47 9.53949406026400659e-01
61 47 9.61672176444333782e-01
62 47 9.69680975396263634e-01
63 47 9.77975802882191547e-01
64 47 9.86556658902116856e-01
65 47 9.95423543456039672e-01
66 47 1.00000000000000000e+00
1 48 1.00000000000000000e+00
2 48 9.95423543456039894e-01
3 48 9.86556658902117078e-01
4 48 9.77975802882191547e-01
5 48 9.69680975396263745e-01
6 48 9.61672176444333671e-01
7 48 9.53949406026400770e-01
8 48 9.46512664142465376e-01
9 48 9.39361950792527711e-01
10 48 9.32497265976587331e-01
11 48 9.25918609694644901e-01
12 48 9.19625981946699866e-01
13 48 9.13619382732752006e-01
14 48 9.07898812052801540e-01
15 48 9.02464269906849137e-01
16 48 8.97315756294893907e-01
17 48 8.92453271216935962e-01
18 48 8.87876814672975856e-01
19 48 8.83586386663013146e-01
20 48 8.79581987187048053e-01
21 48 8.75863616245080467e-01
22 48 8.72431273837110166e-01
23 48 8.69284959963137593e-01
24 48 8.66424674623162305e-01
25 48 8.63850417817185190e-01
26 48 8.61562189545204693e-01
27 48 8.59559989807222369e-01
28 48 8.57843818603237329e-01
29 48 8.56413675933249574e-01
30 48 8.55269561797259548e-01
31 48 8.54411476195266806e-01
32 48 8.53839419127271793e-01
33 48 8.53553390593274175e-01
34 48 8.53553390593274175e-01
35 48 8.53839419127271793e-01
36 48 8.54411476195266584e-01
37 48 8.55269561797259215e-01
38 48 8.56413675933249352e-01
39 48 8.57843818603236885e-01
40 48 8.59559989807221814e-01
41 48 8.61562189545204360e-01
42 48 8.63850417817184302e-01
43 48 8.66424674623161972e-01
44 48 8.69284959963137260e-01
45 48 8.72431273837109500e-01
46 48 8.75863616245080134e-01
47 48 8.79581987187047720e-01
48 48 8.83586386663012702e-01
49 48 8.87876814672975190e-01
50 48 8.92453271216935518e-01
51 48 8.97315756294893019e-01
52 48 9.02464269906848249e-01
53 48 9.07898812052801096e-01
54 48 9.13619382732751451e-01
55 48 9.19625981946699200e-01
56 48 9.25918609694644457e-01
57 48 9.32497265976587109e-01
58 48 9.39361950792527600e-01
59 48 9.46512664142465265e-01
60 48 9.53949406026400659e-01
61 48 9.61672176444333671e-01
62 48 9.69680975396263634e-01
63 48 9.77975802882191547e-01
64 48 9.86556658902116856e-01
65 48 9.95423543456039672e-01
66 48 1.00000000000000000e+00
1 49 1.00000000000000000e+00
2 49 9.95423543456039894e-01
3 49 9.86556658902116967e-01
4 49 9.77975802882191547e-01
5 49 9.69680975396263745e-01
6 49 9.61672176444333671e-01
7 49 9.53949406026400659e-01
8 49 9.46512664142465376e-01
9 49 9.39361950792527711e-01
10 49 9.32497265976587331e-01
11 49 9.25918609694644901e-01
12 49 9.19625981946699866e-01
13 49 9.13619382732751895e-01
14 49 9.07898812052801540e-01
15 49 9.02464269906849137e-01
16 49 8.97315756294893907e-01
17 49 8.92453271216935851e-01
18 49 8.87876814672975745e-01
19 49 8.83586386663013146e-01
20 49 8.79581987187048053e-01
21 49 8.75863616245080467e-01
22 49 8.72431273837110166e-01
23 49 8.69284959963137593e-01
24 49 8.66424674623162305e-01
25 49 8.63850417817185190e-01
26 49 8.61562189545204693e-01
27 49 8.59559989807222369e-01
28 49 8.57843818603237329e-01
29 49 8.56413675933249574e-01
30 49 8.55269561797259437e-01
31 49 8.54411476195266695e-01
32 49 8.53839419127271793e-01
33 49 8.53553390593274175e-01
34 49 8.53553390593274175e-01
35 49 8.53839419127271793e-01
36 49 8.54411476195266584e-01
37 49 8.55269561797259104e-01
38 49 8.56413675933249352e-01
39 49 8.57843818603236885e-01
40 49 8.59559989807221814e-01
41 49 8.61562189545204360e-01
42 49 8.63850417817184302e-01
43 49 8.66424674623161972e-01
44 49 8.69284959963137260e-01
45 49 8.72431273837109500e-01
46 49 8.75863616245080023e-01
47 49 8.79581987187047609e-01
48 49 8.83586386663012702e-01
49 49 8.87876814672975190e-01
50 49 8.92453271216935407e-01
51 49 8.97315756294893019e-01
52 49 9.02464269906848138e-01
53 49 9.07898812052801096e-01
54 49 9.13619382732751451e-01
55 49 9.19625981946699200e-01
56 49 9.25918609694644346e-01
57 49 9.32497265976587109e-01
58 49 9.39361950792527600e-01
59 49 9.46512664142465265e-01
60 49 9.53949406026400659e-01
61 49 9.61672176444333671e-01
62 49 9.69680975396263634e-01
63 49 9.77975802882191547e-01
64 49 9.86556658902116745e-01
65 49 9.95423543456039672e-01
66 49 1.00000000000000000e+00
1 50 1.00000000000000000e+00
2 50 9.95423543456040005e-01
3 50 9.86556658902117078e-01
4 50 9.77975802882191658e-01
5 50 9.69680975396263856e-01
6 50 9.61672176444333782e-01
7 50 9.53949406026400659e-01
8 50 9.46512664142465487e-01
9 50 9.39361950792527711e-01
10 50 9.32497265976587442e-01
11 50 9.25918609694644901e-01
12 50 9.19625981946699866e-01
13 50 9.13619382732751895e-01
14 50 9.07898812052801540e-01
15 50 9.02464269906849137e-01
16 50 8.97315756294893907e-01
17 50 8.92453271216935962e-01
18 50 8.87876814672975745e-01
19 50 8.83586386663013257e-01
20 50 8.79581987187048053e-01
21 50 8.75863616245080578e-01
22 50 8.72431273837110277e-01
23 50 8.69284959963137704e-01
24 50 8.66424674623162416e-01
25 50 8.63850417817185301e-01
26 50 8.61562189545204804e-01
27 50 8.59559989807222369e-01
28 50 8.57843818603237329e-01
29 50 8.56413675933249574e-01
30 50 8.55269561797259548e-01
31 50 8.54411476195266695e-01
32 50 8.53839419127271793e-01
33 50 8.53553390593274175e-01
34 50 8.53553390593274175e-01
35 50 8.53839419127271793e-01
36 50 8.54411476195266584e-01
37 50 8.55269561797259215e-01
38 50 8.56413675933249352e-01
39 50 8.57843818603236996e-01
40 50 8.59559989807221814e-01
41 50 8.61562189545204360e-01
42 50 8.63850417817184413e-01
43 50 8.66424674623162083e-01
44 50 8.69284959963137371e-01
45 50 8.72431273837109611e-01
46 50 8.75863616245080023e-01
47 50 8.79581987187047609e-01
48 50 8.83586386663012813e-01
49 50 8.87876814672975190e-01
50 50 8.92453271216935518e-01
51 50 8.97315756294893130e-01
52 50 9.02464269906848138e-01
53 50 9.07898812052801096e-01
54 50 9.13619382732751451e-01
55 50 9.19625981946699200e-01
56 50 9.25918609694644457e-01
57 50 9.32497265976587220e-01
58 50 9.39361950792527600e-01
59 50 9.46512664142465376e-01
60 50 9.53949406026400659e-01
61 50 9.61672176444333671e-01
62 50 9.69680975396263745e-01
63 50 9.77975802882191658e-01
64 50 9.86556658902116856e-01
65 50 9.95423543456039783e-01
66 50 1.00000000000000000e+00
1 51 1.00000000000000000e+00
2 51 9.95423543456040116e-01
3 51 9.86556658902117078e-01
4 51 9.77975802882191658e-01
5 51 9.69680975396263856e-01
6 51 9.61672176444333782e-01
7 51 9.53949406026400770e-01
8 51 9.46512664142465487e-01
9 51 9.39361950792527711e-01
10 51 9.32497265976587553e-01
11 51 9.25918609694644901e-01
12 51 9.19625981946699866e-01
13 51 9.13619382732751895e-01
14 51 9.07898812052801540e-01
15 51 9.02464269906849137e-01
16 51 8.97315756294893907e-01
17 51 8.92453271216935962e-01
18 51 8.87876814672975856e-01
19 51 8.83586386663013257e-01
20 51 8.79581987187048053e-01
21 51 8.75863616245080578e-01
22 51 8.72431273837110277e-01
23 51 8.69284959963137704e-01
24 51 8.66424674623162416e-01
25 51 8.63850417817185301e-01
26 51 8.61562189545204804e-01
27 51 8.59559989807222480e-01
28 51 8.57843818603237329e-01
29 51 8.56413675933249685e-01
30 51 8.55269561797259659e-01
31 51 8.54411476195266806e-01
32 51 8.53839419127271793e-01
33 51 8.53553390593274286e-01
34 51 8.53553390593274286e-01
35 51 8.53839419127271793e-01
36 51 8.54411476195266695e-01
37 51 8.55269561797259215e-01
38 51 8.56413675933249463e-01
39 51 8.57843818603236996e-01
40 51 8.59559989807221925e-01
41 51 8.61562189545204471e-01
42 51 8.63850417817184413e-01
43 51 8.66424674623162083e-01
44 51 8.69284959963137371e-01
45 51 8.72431273837109611e-01
46 51 8.75863616245080134e-01
47 51 8.79581987187047609e-01
48 51 8.83586386663012813e-01
49 51 8.87876814672975190e-01
50 51 8.92453271216935518e-01
51 51 8.97315756294893241e-01
52 51 9.02464269906848249e-01
53 51 9.07898812052801096e-01
54 51 9.13619382732751451e-01
55 51 9.19625981946699311e-01
56 51 9.25918609694644457e-01
57 51 9.32497265976587220e-01
58 51 9.39361950792527600e-01
59 51 9.46512664142465376e-01
60 51 9.53949406026400770e-01
61 51 9.61672176444333671e-01
62 51 9.69680975396263745e-01
63 51 9.77975802882191658e-01
64 51 9.86556658902116967e-01
65 51 9.95423543456039894e-01
66 51 1.00000000000000000e+00
1 52 1.00000000000000000e+00
2 52 9.95423543456040116e-01
3 52 9.86556658902117078e-01
4 52 9.77975802882191658e-01
5 52 9.69680975396263856e-01
6 52 9.61672176444333782e-01
7 52 9.53949406026400770e-01
8 52 9.46512664142465487e-01
9 52 9.39361950792527711e-01
10 52 9.32497265976587553e-01
11 52 9.25918609694644901e-01
12 52 9.19625981946699866e-01
13 52 9.13619382732751895e-01
14 52 9.07898812052801540e-01
15 52 9.02464269906849137e-01
16 52 8.97315756294893907e-01
17 52 8.92453271216935962e-01
18 52 8.87876814672975856e-01
19 52 8.83586386663013257e-01
20 52 8.79581987187048053e-01
21 52 8.75863616245080578e-01
22 52 8.72431273837110277e-01
23 52 8.69284959963137704e-01
24 52 8.66424674623162416e-01
25 52 8.63850417817185190e-01
26 52 8.61562189545204804e-01
27 52 8.59559989807222480e-01
28 52 8.57843818603237329e-01
29 52 8.56413675933249574e-01
30 52 8.55269561797259659e-01
31 52 8.54411476195266806e-01
32 52 8.53839419127271793e-01
33 52 8.53553390593274286e-01
34 52 8.53553390593274286e-01
35 52 8.53839419127271793e-01
36 52 8.54411476195266695e-01
37 52 8.55269561797259215e-01
38 52 8.56413675933249463e-01
39 52 8.57843818603236996e-01
40 52 8.59559989807221925e-01
41 52 8.61562189545204471e-01
42 52 8.63850417817184413e-01
43 52 8.66424674623162083e-01
44 52 8.69284959963137371e-01
45 52 8.72431273837109611e-01
46 52 8.75863616245080134e-01
47 52 8.79581987187047609e-01
48 52 8.83586386663012813e-01
49 52 8.87876814672975190e-01
50 52 8.92453271216935518e-01
51 52 8.97315756294893241e-01
52 52 9.02464269906848249e-01
53 52 9.07898812052801096e-01
54 52 9.13619382732751451e-01
55 52 9.19625981946699311e-01
56 52 9.25918609694644457e-01
57 52 9.32497265976587220e-01
58 52 9.39361950792527489e-01
59 52 9.46512664142465376e-01
60 52 9.53949406026400770e-01
61 52 9.61672176444333671e-01
62 52 9.69680975396263745e-01
63 52 9.77975802882191658e-01
64 52 9.86556658902116967e-01
65 52 9.95423543456039894e-01
66 52 1.00000000000000000e+00
1 53 1.00000000000000000e+00
2 53 9.95423543456040005e-01
3 53 9.86556658902117078e-01
4 53 9.77975802882191658e-01
5 53 9.69680975396263856e-01
6 53 9.61672176444333782e-01
7 53 9.53949406026400770e-01
8 53 9.46512664142465487e-01
9 53 9.39361950792527711e-01
10 53 9.32497265976587553e-01
11 53 9.25918609694644901e-01
12 53 9.19625981946699866e-01
13 53 9.13619382732751895e-01
14 53 9.07898812052801540e-01
15 53 9.02464269906849137e-01
16 53 8.97315756294893907e-01
17 53 8.92453271216935962e-01
18 53 8.87876814672975745e-01
19 53 8.83586386663013257e-01
20 53 8.79581987187048053e-01
21 53 8.75863616245080578e-01
22 53 8.72431273837110277e-01
23 53 8.69284959963137704e-01
24 53 8.66424674623162305e-01
25 53 8.63850417817185190e-01
26 53 8.61562189545204804e-01
27 53 8.59559989807222369e-01
28 53 8.57843818603237329e-01
29 53 8.56413675933249574e-01
30 53 8.55269561797259659e-01
31 53 8.54411476195266806e-01
32 53 8.53839419127271793e-01
33 53 8.53553390593274286e-01
34 53 8.53553390593274286e-01
35 53 8.53839419127271793e-01
36 53 8.54411476195266695e-01
37 53 8.55269561797259215e-01
38 53 8.56413675933249463e-01
39 53 8.57843818603236996e-01
40 53 8.59559989807221925e-01
41 53 8.61562189545204471e-01
42 53 8.63850417817184413e-01
43 53 8.66424674623162083e-01
44 53 8.69284959963137371e-01
45 53 8.72431273837109611e-01
46 53 8.75863616245080134e-01
47 53 8.79581987187047609e-01
48 53 8.83586386663012813e-01
49 53 8.87876814672975190e-01
50 53 8.92453271216935518e-01
51 53 8.97315756294893241e-01
52 53 9.02464269906848249e-01
53 53 9.07898812052801096e-01
54 53 9.13619382732751451e-01
55 53 9.19625981946699311e-01
56 53 9.25918609694644457e-01
57 53 9.32497265976587109e-01
58 53 9.39361950792527378e-01
59 53 9.46512664142465265e-01
60 53 9.53949406026400770e-01
61 53 9.61672176444333671e-01
62 53 9.69680975396263745e-01
63 53 9.77975802882191658e-01
64 53 9.86556658902116967e-01
65 53 9.95423543456039894e-01
66 53 1.00000000000000000e+00
1 54 1.00000000000000000e+00
2 54 9.95423543456040005e-01
3 54 9.86556658902117078e-01
4 54 9.77975802882191658e-01
5 54 9.69680975396263856e-01
6 54 9.61672176444333782e-01
7 54 9.53949406026400770e-01
8 54 9.46512664142465487e-01
9 54 9.39361950792527711e-01
10 54 9.32497265976587553e-01
11 54 9.25918609694644901e-01
12 54 9.19625981946699866e-01
13 54 9.13619382732751895e-01
14 54 9.07898812052801540e-01
15 54 9.02464269906849137e-01
16 54 8.97315756294893907e-01
17 54 8.92453271216935962e-01
18 54 8.87876814672975745e-01
19 54 8.83586386663013257e-01
20 54 8.79581987187048053e-01
21 54 8.75863616245080578e-01
22 54 8.72431273837110277e-01
23 54 8.69284959963137704e-01
24 54 8.66424674623162305e-01
25 54 8.63850417817185190e-01
26 54 8.61562189545204804e-01
27 54 8.59559989807222369e-01
28 54 8.57843818603237329e-01
29 54 8.56413675933249574e-01
30 54 8.55269561797259659e-01
31 54 8.54411476195266806e-01
32 54 8.53839419127271793e-01
33 54 8.53553390593274286e-01
34 54 8.53553390593274286e-01
35 54 8.53839419127271793e-01
36 54 8.54411476195266695e-01
37 54 8.55269561797259215e-01
38 54 8.56413675933249463e-01
39 54 8.57843818603236996e-01
40 54 8.59559989807221925e-01
41 54 8.61562189545204471e-01
42 54 8.63850417817184413e-01
43 54 8.66424674623162083e-01
44 54 8.69284959963137371e-01
45 54 8.72431273837109611e-01
46 54 8.75863616245080134e-01
47 54 8.79581987187047609e-01
48 54 8.83586386663012813e-01
49 54 8.87876814672975190e-01
50 54 8.92453271216935518e-01
51 54 8.97315756294893130e-01
52 54 9.02464269906848249e-01
53 54 9.07898812052801096e-01
54 54 9.13619382732751451e-01
55 54 9.19625981946699311e-01
56 54 9.25918609694644457e-01
57 54 9.32497265976587109e-01
58 54 9.39361950792527378e-01
59 54 9.46512664142465265e-01
60 54 9.53949406026400770e-01
61 54 9.61672176444333671e-01
62 54 9.69680975396263745e-01
63 54 9.77975802882191658e-01
64 54 9.86556658902116967e-01
65 54 9.95423543456039894e-01
66 54 1.00000000000000000e+00
1 55 1.00000000000000000e+00
2 55 9.95423543456039894e-01
3 55 9.86556658902117078e-01
4 55 9.77975802882191547e-01
5 55 9.69680975396263856e-01
6 55 9.61672176444333671e-01
7 55 9.53949406026400659e-01
8 55 9.46512664142465487e-01
9 55 9.39361950792527711e-01
10 55 9.32497265976587553e-01
11 55 9.25918609694644901e-01
12 55 9.19625981946699866e-01
13 55 9.13619382732751895e-01
14 55 9.07898812052801540e-01
15 55 9.02464269906849026e-01
16 55 8.97315756294893796e-01
17 55 8.92453271216935962e-01
18 55 8.87876814672975745e-01
19 55 8.83586386663013146e-01
20 55 8.79581987187048053e-01
21 55 8.75863616245080467e-01
22 55 8.72431273837110277e-01
23 55 8.69284959963137704e-01
24 55 8.66424674623162305e-01
25 55 8.63850417817185190e-01
26 55 8.61562189545204804e-01
27 55 8.59559989807222369e-01
28 55 8.57843818603237218e-01
29 55 8.56413675933249463e-01
30 55 8.55269561797259548e-01
31 55 8.54411476195266806e-01
32 55 8.53839419127271682e-01
33 55 8.53553390593274286e-01
34 55 8.53553390593274286e-01
35 55 8.53839419127271682e-01
36 55 8.54411476195266584e-01
37 55 8.55269561797259104e-01
38 55 8.56413675933249352e-01
39 55 8.57843818603236885e-01
40 55 8.59559989807221925e-01
41 55 8.61562189545204360e-01
42 55 8.63850417817184413e-01
43 55 8.66424674623162083e-01
44 55 8.69284959963137260e-01
45 55 8.72431273837109500e-01
46 55 8.75863616245080023e-01
47 55 8.79581987187047498e-01
48 55 8.83586386663012702e-01
49 55 8.87876814672975190e-01
50 55 8.92453271216935407e-01
51 55 8.97315756294893130e-01
52 55 9.02464269906848249e-01
53 55 9.07898812052801096e-01
54 55 9.13619382732751451e-01
55 55 9.19625981946699200e-01
56 55 9.25918609694644457e-01
57 55 9.32497265976586998e-01
58 55 9.39361950792527378e-01
59 55 9.46512664142465265e-01
60 55 9.53949406026400659e-01
61 55 9.61672176444333560e-01
62 55 9.69680975396263745e-01
63 55 9.77975802882191547e-01
64 55 9.86556658902116967e-01
65 55 9.95423543456039783e-01
66 55 1.00000000000000000e+00
1 56 1.00000000000000000e+00
2 56 9.95423543456039894e-01
3 56 9.86556658902117078e-01
4 56 9.77975802882191547e-01
5 56 9.69680975396263967e-01
6 56 9.61672176444333671e-01
7 56 9.53949406026400659e-01
8 56 9.46512664142465487e-01
9 56 9.39361950792527711e-01
10 56 9.32497265976587553e-01
11 56 9.25918609694644901e-01
12 56 9.19625981946699866e-01
13 56 9.13619382732751895e-01
14 56 9.07898812052801540e-01
15 56 9.02464269906849026e-01
16 56 8.97315756294893796e-01
17 56 8.92453271216935962e-01
18 56 8.87876814672975745e-01
19 56 8.83586386663013146e-01
20 56 8.79581987187048053e-01
21 56 8.75863616245080467e-01
22 56 8.72431273837110277e-01
23 56 8.69284959963137704e-01
24 56 8.66424674623162416e-01
25 56 8.63850417817185190e-01
26 56 8.61562189545204804e-01
27 56 8.59559989807222369e-01
28 56 8.57843818603237218e-01
29 56 8.56413675933249463e-01
30 56 8.55269561797259659e-01
31 56 8.54411476195266806e-01
32 56 8.53839419127271682e-01
33 56 8.53553390593274286e-01
34 56 8.53553390593274286e-01
35 56 8.53839419127271682e-01
36 56 8.54411476195266584e-01
37 56 8.55269561797259104e-01
38 56 8.56413675933249352e-01
39 56 8.57843818603236885e-01
40 56 8.59559989807221925e-01
41 56 8.61562189545204360e-01
42 56 8.63850417817184413e-01
43 56 8.66424674623162083e-01
44 56 8.69284959963137260e-01
45 56 8.72431273837109611e-01
46 56 8.75863616245080023e-01
47 56 8.79581987187047609e-01
48 56 8.83586386663012702e-01
49 56 8.87876814672975190e-01
50 56 8.92453271216935407e-01
51 56 8.97315756294893130e-01
52 56 9.02464269906848360e-01
53 56 9.07898812052801096e-01
54 56 9.13619382732751451e-01
55 56 9.19625981946699200e-01
56 56 9.25918609694644568e-01
57 56 9.32497265976587109e-01
58 56 9.39361950792527378e-01
59 56 9.46512664142465265e-01
60 56 9.53949406026400659e-01
61 56 9.61672176444333560e-01
62 56 9.69680975396263856e-01
63 56 9.77975802882191547e-01
64 56 9.86556658902116967e-01
65 56 9.95423543456039783e-01
66 56 1.00000000000000000e+00
1 57 1.00000000000000000e+00
2 57 9.95423543456039894e-01
3 57 9.86556658902117078e-01
4 57 9.77975802882191547e-01
5 57 9.69680975396263967e-01
6 57 9.61672176444333671e-01
7 57 9.53949406026400659e-01
8 57 9.46512664142465487e-01
9 57 9.39361950792527711e-01
10 57 9.32497265976587553e-01
11 57 9.25918609694644790e-01
12 57 9.19625981946699866e-01
13 57 9.13619382732751895e-01
14 57 9.07898812052801540e-01
15 57 9.02464269906849026e-01
16 57 8.97315756294893796e-01
17 57 8.92453271216935962e-01
18 57 8.87876814672975634e-01
19 57 8.83586386663013146e-01
20 57 8.79581987187047942e-01
21 57 8.75863616245080467e-01
22 57 8.72431273837110277e-01
23 57 8.69284959963137704e-01
24 57 8.66424674623162416e-01
25 57 8.63850417817185079e-01
26 57 8.61562189545204804e-01
27 57 8.59559989807222369e-01
28 57 8.57843818603237218e-01
29 57 8.56413675933249463e-01
30 57 8.55269561797259659e-01
31 57 8.54411476195266806e-01
32 57 8.53839419127271682e-01
33 57 8.53553390593274286e-01
34 57 8.53553390593274286e-01
35 57 8.53839419127271682e-01
36 57 8.54411476195266584e-01
37 57 8.55269561797259104e-01
38 57 8.56413675933249352e-01
39 57 8.57843818603236774e-01
40 57 8.59559989807221925e-01
41 57 8.61562189545204360e-01
42 57 8.63850417817184413e-01
43 57 8.66424674623162083e-01
44 57 8.69284959963137260e-01
45 57 8.72431273837109611e-01
46 57 8.75863616245080023e-01
47 57 8.79581987187047609e-01
48 57 8.83586386663012702e-01
49 57 8.87876814672975190e-01
50 57 8.92453271216935407e-01
51 57 8.97315756294893130e-01
52 57 9.02464269906848360e-01
53 57 9.07898812052801096e-01
54 57 9.13619382732751451e-01
55 57 9.19625981946699200e-01
56 57 9.25918609694644457e-01
57 57 9.32497265976587109e-01
58 57 9.39361950792527378e-01
59 57 9.46512664142465265e-01
60 57 9.53949406026400659e-01
61 57 9.61672176444333560e-01
62 57 9.69680975396263856e-01
63 57 9.77975802882191547e-01
64 57 9.86556658902116967e-01
65 57 9.95423543456039783e-01
66 57 1.00000000000000000e+00
1 58 1.00000000000000000e+00
2 58 9.95423543456039894e-01
3 58 9.86556658902117078e-01
4 58 9.77975802882191547e-01
5 58 9.69680975396263967e-01
6 58 9.61672176444333671e-01
7 58 9.53949406026400659e-01
8 58 9.46512664142465487e-01
9 58 9.39361950792527711e-01
10 58 9.32497265976587553e-01
11 58 9.25918609694644790e-01
12 58 9.19625981946699866e-01
13 58 9.13619382732752006e-01
14 58 9.07898812052801540e-01
15 58 9.02464269906849026e-01
16 58 8.97315756294893796e-01
17 58 8.92453271216935962e-01
18 58 8.87876814672975634e-01
19 58 8.83586386663013146e-01
20 58 8.79581987187047942e-01
21 58 8.75863616245080467e-01
22 58 8.72431273837110277e-01
23 58 8.69284959963137704e-01
24 58 8.66424674623162416e-01
25 58 8.63850417817185079e-01
26 58 8.61562189545204804e-01
27 58 8.59559989807222369e-01
28 58 8.57843818603237218e-01
29 58 8.56413675933249463e-01
30 58 8.55269561797259659e-01
31 58 8.54411476195266806e-01
32 58 8.53839419127271682e-01
33 58 8.53553390593274286e-01
34 58 8.53553390593274286e-01
35 58 8.53839419127271682e-01
36 58 8.54411476195266584e-01
37 58 8.55269561797259104e-01
38 58 8.56413675933249352e-01
39 58 8.57843818603236774e-01
40 58 8.59559989807222036e-01
41 58 8.61562189545204360e-01
42 58 8.63850417817184413e-01
43 58 8.66424674623162083e-01
44 58 8.69284959963137260e-01
45 58 8.72431273837109611e-01
46 58 8.75863616245080023e-01
47 58 8.79581987187047609e-01
48 58 8.83586386663012702e-01
49 58 8.87876814672975190e-01
50 58 8.92453271216935407e-01
51 58 8.97315756294893130e-01
52 58 9.02464269906848360e-01
53 58 9.07898812052801096e-01
54 58 9.13619382732751451e-01
55 58 9.19625981946699200e-01
56 58 9.25918609694644457e-01
57 58 9.32497265976587109e-01
58 58 9.39361950792527378e-01
59 58 9.46512664142465265e-01
60 58 9.53949406026400659e-01
61 58 9.61672176444333560e-01
62 58 9.69680975396263856e-01
63 58 9.77975802882191547e-01
64 58 9.86556658902116967e-01
65 58 9.95423543456039783e-01
66 58 1.00000000000000000e+00
1 59 1.00000000000000000e+00
2 59 9.95423543456039894e-01
3 59 9.86556658902117078e-01
4 59 9.77975802882191547e-01
5 59 9.69680975396263967e-01
6 59 9.61672176444333671e-01
7 59 9.53949406026400659e-01
8 59 9.46512664142465487e-01
9 59 9.39361950792527711e-01
10 59 9.32497265976587553e-01
11 59 9.25918609694644790e-01
12 59 9.19625981946699755e-01
13 59 9.13619382732751895e-01
14 59 9.07898812052801540e-01
15 59 9.02464269906848915e-01
16 59 8.97315756294893796e-01
17 59 8.92453271216935962e-01
18 59 8.87876814672975634e-01
19 59 8.83586386663013146e-01
20 59 8.79581987187047942e-01
21 59 8.75863616245080467e-01
22 59 8.72431273837110277e-01
23 59 8.69284959963137704e-01
24 59 8.66424674623162416e-01
25 59 8.63850417817184968e-01
26 59 8.61562189545204804e-01
27 59 8.59559989807222258e-01
28 59 8.57843818603237107e-01
29 59 8.56413675933249463e-01
30 59 8.55269561797259659e-01
31 59 8.54411476195266806e-01
32 59 8.53839419127271682e-01
33 59 8.53553390593274286e-01
34 59 8.53553390593274286e-01
35 59 8.53839419127271682e-01
36 59 8.54411476195266584e-01
37 59 8.55269561797259104e-01
38 59 8.56413675933249352e-01
39 59 8.57843818603236663e-01
40 59 8.59559989807221925e-01
41 59 8.61562189545204360e-01
42 59 8.63850417817184413e-01
43 59 8.66424674623162083e-01
44 59 8.69284959963137260e-01
45 59 8.72431273837109611e-01
46 59 8.75863616245080023e-01
47 59 8.79581987187047609e-01
48 59 8.83586386663012702e-01
49 59 8.87876814672975190e-01
50 59 8.92453271216935407e-01
51 59 8.97315756294893130e-01
52 59 9.02464269906848360e-01
53 59 9.07898812052801096e-01
54 59 9.13619382732751339e-01
55 59 9.19625981946699089e-01
56 59 9.25918609694644457e-01
57 59 9.32497265976587109e-01
58 59 9.39361950792527378e-01
59 59 9.46512664142465265e-01
60 59 9.53949406026400659e-01
61 59 9.61672176444333449e-01
62 59 9.69680975396263856e-01
63 59 9.77975802882191547e-01
64 59 9.86556658902116967e-01
65 59 9.95423543456039783e-01
66 59 1.00000000000000000e+00
1 60 1.00000000000000000e+00
2 60 9.95423543456039894e-01
3 60 9.86556658902117078e-01
4 60 9.77975802882191658e-01
5 60 9.69680975396263967e-01
6 60 9.61672176444333671e-01
7 60 9.53949406026400659e-01
8 60 9.46512664142465487e-01
9 60 9.39361950792527711e-01
10 60 9.32497265976587553e-01
11 60 9.25918609694644790e-01
12 60 9.19625981946699755e-01
13 60 9.13619382732751895e-01
14 60 9.07898812052801651e-01
15 60 9.02464269906848915e-01
16 60 8.97315756294893796e-01
17 60 8.92453271216935962e-01
18 60 8.87876814672975745e-01
19 60 8.83586386663013146e-01
20 60 8.79581987187047942e-01
21 60 8.75863616245080467e-01
22 60 8.72431273837110277e-01
23 60 8.69284959963137704e-01
24 60 8.66424674623162527e-01
25 60 8.63850417817184968e-01
26 60 8.61562189545204804e-01
27 60 8.59559989807222258e-01
28 60 8.57843818603237107e-01
29 60 8.56413675933249574e-01
30 60 8.55269561797259659e-01
31 60 8.54411476195266806e-01
32 60 8.53839419127271682e-01
33 60 8.53553390593274286e-01
34 60 8.53553390593274286e-01
35 60 8.53839419127271682e-01
36 60 8.54411476195266584e-01
37 60 8.55269561797259104e-01
38 60 8.56413675933249352e-01
39 60 8.57843818603236774e-01
40 60 8.59559989807221925e-01
41 60 8.61562189545204360e-01
42 60 8.63850417817184413e-01
43 60 8.66424674623162083e-01
44 60 8.69284959963137260e-01
45 60 8.72431273837109722e-01
46 60 8.75863616245080023e-01
47 60 8.79581987187047609e-01
48 60 8.83586386663012702e-01
49 60 8.87876814672975301e-01
50 60 8.92453271216935518e-01
51 60 8.97315756294893130e-01
52 60 9.02464269906848471e-01
53 60 9.07898812052801207e-01
54 60 9.13619382732751339e-01
55 60 9.19625981946699089e-01
56 60 9.25918609694644457e-01
57 60 9.32497265976587220e-01
58 60 9.39361950792527378e-01
59 60 9.46512664142465265e-01
60 60 9.53949406026400659e-01
61 60 9.61672176444333449e-01
62 60 9.69680975396263856e-01
63 60 9.77975802882191658e-01
64 60 9.86556658902116967e-01
65 60 9.95423543456039783e-01
66 60 1.00000000000000000e+00
1 61 1.00000000000000000e+00
2 61 9.95423543456039894e-01
3 61 9.86556658902117078e-01
4 61 9.77975802882191658e-01
5 61 9.69680975396263967e-01
6 61 9.61672176444333671e-01
7 61 9.53949406026400659e-01
8 61 9.46512664142465376e-01
9 61 9.39361950792527711e-01
10 61 9.32497265976587553e-01
11 61 9.25918609694644790e-01
12 61 9.19625981946699755e-01
13 61 9.13619382732751895e-01
14 61 9.07898812052801651e-01
15 61 9.02464269906848915e-01
16 61 8.97315756294893685e-01
17 61 8.92453271216935962e-01
18 61 8.87876814672975745e-01
19 61 8.83586386663013146e-01
20 61 8.79581987187047942e-01
21 61 8.75863616245080467e-01
22 61 8.72431273837110277e-01
23 61 8.69284959963137704e-01
24 61 8.66424674623162527e-01
25 61 8.63850417817184968e-01
26 61 8.61562189545204804e-01
27 61 8.59559989807222258e-01
28 61 8.57843818603237107e-01
29 61 8.56413675933249574e-01
30 61 8.55269561797259659e-01
31 61 8.54411476195266806e-01
32 61 8.53839419127271682e-01
33 61 8.53553390593274286e-01
34 61 8.53553390593274175e-01
35 61 8.53839419127271682e-01
36 61 8.54411476195266584e-01
37 61 8.55269561797259104e-01
38 61 8.56413675933249241e-01
39 61 8.57843818603236774e-01
40 61 8.59559989807221925e-01
41 61 8.61562189545204360e-01
42 61 8.63850417817184413e-01
43 61 8.66424674623162083e-01
44 61 8.69284959963137260e-01
45 61 8.72431273837109722e-01
46 61 8.75863616245080023e-01
47 61 8.79581987187047498e-01
48 61 8.83586386663012702e-01
49 61 8.87876814672975301e-01
50 61 8.92453271216935518e-01
51 61 8.97315756294893130e-01
52 61 9.02464269906848471e-01
53 61 9.07898812052801207e-01
54 61 9.13619382732751339e-01
55 61 9.19625981946699089e-01
56 61 9.25918609694644457e-01
57 61 9.32497265976587220e-01
58 61 9.39361950792527378e-01
59 61 9.46512664142465154e-01
60 61 9.53949406026400659e-01
61 61 9.61672176444333449e-01
62 61 9.69680975396263745e-01
63 61 9.77975802882191658e-01
64 61 9.86556658902116967e-01
65 61 9.95423543456039783e-01
66 61 1.00000000000000000e+00
1 62 1.00000000000000000e+00
2 62 9.95423543456039894e-01
3 62 9.86556658902117078e-01
4 62 9.77975802882191658e-01
5 62 9.69680975396263967e-01
6 62 9.61672176444333671e-01
7 62 9.53949406026400770e-01
8 62 9.46512664142465487e-01
9 62 9.39361950792527822e-01
10 62 9.32497265976587553e-01
11 62 9.25918609694644790e-01
12 62 9.19625981946699755e-01
13 62 9.13619382732752006e-01
14 62 9.07898812052801651e-01
15 62 9.02464269906848915e-01
16 62 8.97315756294893685e-01
17 62 8.92453271216935962e-01
18 62 8.87876814672975856e-01
19 62 8.83586386663013146e-01
20 62 8.79581987187048053e-01
21 62 8.75863616245080467e-01
22 62 8.72431273837110277e-01
23 62 8.69284959963137704e-01
24 62 8.66424674623162527e-01
25 62 8.63850417817184968e-01
26 62 8.61562189545204915e-01
27 62 8.59559989807222258e-01
28 62 8.57843818603237107e-01
29 62 8.56413675933249574e-01
30 62 8.55269561797259659e-01
31 62 8.54411476195266917e-01
32 62 8.53839419127271793e-01
33 62 8.53553390593274286e-01
34 62 8.53553390593274175e-01
35 62 8.53839419127271682e-01
36 62 8.54411476195266695e-01
37 62 8.55269561797259215e-01
38 62 8.56413675933249241e-01
39 62 8.57843818603236774e-01
40 62 8.59559989807221925e-01
41 62 8.61562189545204360e-01
42 62 8.63850417817184524e-01
43 62 8.66424674623162083e-01
44 62 8.69284959963137260e-01
45 62 8.72431273837109833e-01
46 62 8.75863616245080023e-01
47 62 8.79581987187047609e-01
48 62 8.83586386663012702e-01
49 62 8.87876814672975301e-01
50 62 8.92453271216935518e-01
51 62 8.97315756294893241e-01
52 62 9.02464269906848471e-01
53 62 9.07898812052801207e-01
54 62 9.13619382732751451e-01
55 62 9.19625981946699089e-01
56 62 9.25918609694644457e-01
57 62 9.32497265976587220e-01
58 62 9.39361950792527489e-01
59 62 9.46512664142465265e-01
60 62 9.53949406026400659e-01
61 62 9.61672176444333449e-01
62 62 9.69680975396263745e-01
63 62 9.77975802882191658e-01
64 62 9.86556658902116967e-01
65 62 9.95423543456039783e-01
66 62 1.00000000000000000e+00
1 63 1.00000000000000000e+00
2 63 9.95423543456039894e-01
3 63 9.86556658902117078e-01
4 63 9.77975802882191658e-01
5 63 9.69680975396263967e-01
6 63 9.61672176444333671e-01
7 63 9.53949406026400770e-01
8 63 9.46512664142465487e-01
9 63 9.39361950792527711e-01
10 63 9.32497265976587553e-01
11 63 9.25918609694644790e-01
12 63 9.19625981946699644e-01
13 63 9.13619382732751895e-01
14 63 9.07898812052801651e-01
15 63 9.02464269906848915e-01
16 63 8.97315756294893685e-01
17 63 8.92453271216935962e-01
18 63 8.87876814672975745e-01
19 63 8.83586386663013146e-01
20 63 8.79581987187048053e-01
21 63 8.75863616245080467e-01
22 63 8.72431273837110277e-01
23 63 8.69284959963137704e-01
24 63 8.66424674623162527e-01
25 63 8.63850417817184968e-01
26 63 8.61562189545204915e-01
27 63 8.59559989807222258e-01
28 63 8.57843818603237107e-01
29 63 8.56413675933249574e-01
30 63 8.55269561797259548e-01
31 63 8.54411476195266917e-01
32 63 8.53839419127271793e-01
33 63 8.53553390593274286e-01
34 63 8.53553390593274175e-01
35 63 8.53839419127271682e-01
36 63 8.54411476195266695e-01
37 63 8.55269561797259215e-01
38 63 8.56413675933249241e-01
39 63 8.57843818603236774e-01
40 63 8.59559989807221925e-01
41 63 8.61562189545204360e-01
42 63 8.63850417817184524e-01
43 63 8.66424674623162083e-01
44 63 8.69284959963137260e-01
45 63 8.72431273837109833e-01
46 63 8.75863616245079912e-01
47 63 8.79581987187047609e-01
48 63 8.83586386663012702e-01
49 63 8.87876814672975301e-01
50 63 8.92453271216935518e-01
51 63 8.97315756294893241e-01
52 63 9.02464269906848471e-01
53 63 9.07898812052801207e-01
54 63 9.13619382732751451e-01
55 63 9.19625981946699089e-01
56 63 9.25918609694644457e-01
57 63 9.32497265976587220e-01
58 63 9.39361950792527489e-01
59 63 9.46512664142465265e-01
60 63 9.53949406026400659e-01
61 63 9.61672176444333449e-01
62 63 9.69680975396263745e-01
63 63 9.77975802882191547e-01
64 63 9.86556658902116967e-01
65 63 9.95423543456039783e-01
66 63 1.00000000000000000e+00
1 64 1.00000000000000000e+00
2 64 9.95423543456039894e-01
3 64 9.86556658902117078e-01
4 64 9.77975802882191658e-01
5 64 9.69680975396263967e-01
6 64 9.61672176444333671e-01
7 64 9.53949406026400770e-01
8 64 9.46512664142465487e-01
9 64 9.39361950792527711e-01
10 64 9.32497265976587553e-01
11 64 9.25918609694644790e-01
12 64 9.19625981946699644e-01
13 64 9.13619382732751895e-01
14 64 9.07898812052801651e-01
15 64 9.02464269906848915e-01
16 64 8.97315756294893685e-01
17 64 8.92453271216935962e-01
18 64 8.87876814672975745e-01
19 64 8.83586386663013146e-01
20 64 8.79581987187048053e-01
21 64 8.75863616245080467e-01
22 64 8.72431273837110277e-01
23 64 8.69284959963137704e-01
24 64 8.66424674623162527e-01
25 64 8.63850417817184968e-01
26 64 8.61562189545204915e-01
27 64 8.59559989807222258e-01
28 64 8.57843818603237107e-01
29 64 8.56413675933249574e-01
30 64 8.55269561797259548e-01
31 64 8.54411476195266917e-01
32 64 8.53839419127271793e-01
33 64 8.53553390593274286e-01
34 64 8.53553390593274175e-01
35 64 8.53839419127271682e-01
36 64 8.54411476195266695e-01
37 64 8.55269561797259215e-01
38 64 8.56413675933249241e-01
39 64 8.57843818603236774e-01
40 64 8.59559989807221814e-01
41 64 8.61562189545204360e-01
42 64 8.63850417817184524e-01
43 64 8.66424674623162083e-01
44 64 8.69284959963137260e-01
45 64 8.72431273837109833e-01
46 64 8.75863616245079912e-01
47 64 8.79581987187047609e-01
48 64 8.83586386663012702e-01
49 64 8.87876814672975301e-01
50 64 8.92453271216935518e-01
51 64 8.97315756294893241e-01
52 64 9.02464269906848471e-01
53 64 9.07898812052801207e-01
54 64 9.13619382732751451e-01
55 64 9.19625981946699089e-01
56 64 9.25918609694644457e-01
57 64 9.32497265976587220e-01
58 64 9.39361950792527489e-01
59 64 9.46512664142465265e-01
60 64 9.53949406026400659e-01
61 64 9.61672176444333449e-01
62 64 9.69680975396263745e-01
63 64 9.77975802882191547e-01
64 64 9.86556658902116967e-01
65 64 9.95423543456039783e-01
66 64 1.00000000000000000e+00
1 65 1.00000000000000000e+00
2 65 9.95423543456039894e-01
3 65 9.86556658902117078e-01
4 65 9.77975802882191658e-01
5 65 9.69680975396263967e-01
6 65 9.61672176444333671e-01
7 65 9.53949406026400770e-01
8 65 9.46512664142465487e-01
9 65 9.39361950792527711e-01
10 65 9.32497265976587553e-01
11 65 9.25918609694644790e-01
12 65 9.19625981946699644e-01
13 65 9.13619382732751895e-01
14 65 9.07898812052801651e-01
15 65 9.02464269906848915e-01
16 65 8.97315756294893685e-01
17 65 8.92453271216935962e-01
18 65 8.87876814672975745e-01
19 65 8.83586386663013146e-01
20 65 8.79581987187048053e-01
21 65 8.75863616245080467e-01
22 65 8.72431273837110277e-01
23 65 8.69284959963137704e-01
24 65 8.66424674623162527e-01
25 65 8.63850417817184968e-01
26 65 8.61562189545204915e-01
27 65 8.59559989807222258e-01
28 65 8.57843818603237107e-01
29 65 8.56413675933249574e-01
30 65 8.55269561797259548e-01
31 65 8.54411476195266917e-01
32 65 8.53839419127271793e-01
33 65 8.53553390593274286e-01
34 65 8.53553390593274175e-01
35 65 8.53839419127271682e-01
36 65 8.54411476195266695e-01
37 65 8.55269561797259215e-01
38 65 8.56413675933249241e-01
39 65 8.57843818603236774e-01
40 65 8.59559989807221814e-01
41 65 8.61562189545204360e-01
42 65 8.63850417817184524e-01
43 65 8.66424674623162083e-01
44 65 8.69284959963137260e-01
45 65 8.72431273837109833e-01
46 65 8.75863616245079912e-01
47 65 8.79581987187047609e-01
48 65 8.83586386663012702e-01
49 65 8.87876814672975301e-01
50 65 8.92453271216935518e-01
51 65 8.97315756294893241e-01
52 65 9.02464269906848471e-01
53 65 9.07898812052801207e-01
54 65 9.13619382732751451e-01
55 65 9.19625981946699089e-01
56 65 9.25918609694644457e-01
57 65 9.32497265976587220e-01
58 65 9.39361950792527489e-01
59 65 9.46512664142465265e-01
60 65 9.53949406026400659e-01
61 65 9.61672176444333449e-01
62 65 9.69680975396263745e-01
63 65 9.77975802882191547e-01
64 65 9.86556658902116967e-01
65 65 9.95423543456039783e-01
66 65 1.00000000000000000e+00
1 66 1.00000000000000000e+00
2 66 9.95423543456039894e-01
3 66 9.86556658902117078e-01
4 66 9.77975802882191658e-01
5 66 9.69680975396263967e-01
6 66 9.61672176444333671e-01
7 66 9.53949406026400770e-01
8 66 9.46512664142465487e-01
9 66 9.39361950792527711e-01
10 66 9.32497265976587553e-01
11 66 9.25918609694644790e-01
12 66 9.19625981946699644e-01
13 66 9.13619382732751895e-01
14 66 9.07898812052801651e-01
15 66 9.02464269906848915e-01
16 66 8.97315756294893685e-01
17 66 8.92453271216935962e-01
18 66 8.87876814672975745e-01
19 66 8.83586386663013146e-01
20 66 8.79581987187048053e-01
21 66 8.75863616245080467e-01
22 66 8.72431273837110277e-01
23 66 8.69284959963137704e-01
24 66 8.66424674623162527e-01
25 66 8.63850417817184968e-01
26 66 8.61562189545204915e-01
27 66 8.59559989807222258e-01
28 66 8.57843818603237107e-01
29 66 8.56413675933249574e-01
30 66 8.55269561797259548e-01
31 66 8.54411476195266917e-01
32 66 8.53839419127271793e-01
33 66 8.53553390593274286e-01
34 66 8.53553390593274175e-01
35 66 8.53839419127271682e-01
36 66 8.54411476195266695e-01
37 66 8.55269561797259215e-01
38 66 8.56413675933249241e-01
39 66 8.57843818603236774e-01
40 66 8.59559989807221814e-01
41 66 8.61562189545204360e-01
42 66 8.63850417817184524e-01
43 66 8.66424674623162083e-01
44 66 8.69284959963137260e-01
45 66 8.72431273837109833e-01
46 66 8.75863616245079912e-01
47 66 8.79581987187047609e-01
48 66 8.83586386663012702e-01
49 66 8.87876814672975301e-01
50 66 8.92453271216935518e-01
51 66 8.97315756294893241e-01
52 66 9.02464269906848471e-01
53 66 9.07898812052801207e-01
54 66 9.13619382732751451e-01
55 66 9.19625981946699089e-01
56 66 9.25918609694644457e-01
57 66 9.32497265976587220e-01
58 66 9.39361950792527489e-01
59 66 9.46512664142465265e-01
60 66 9.53949406026400659e-01
61 66 9.61672176444333449e-01
62 66 9.69680975396263745e-01
63 66 9.77975802882191547e-01
64 66 9.86556658902116967e-01
65 66 9.95423543456039783e-01
66 66 1.00000000000000000e+00
