%%MatrixMarket matrix coordinate  real general
69 34 2346
1 1 0.00000000000000000e+00
2 1 0.00000000000000000e+00
3 1 0.00000000000000000e+00
4 1 0.00000000000000000e+00
5 1 0.00000000000000000e+00
6 1 0.00000000000000000e+00
7 1 0.00000000000000000e+00
8 1 0.00000000000000000e+00
9 1 0.00000000000000000e+00
10 1 0.00000000000000000e+00
11 1 0.00000000000000000e+00
12 1 0.00000000000000000e+00
13 1 0.00000000000000000e+00
14 1 0.00000000000000000e+00
15 1 0.00000000000000000e+00
16 1 0.00000000000000000e+00
17 1 0.00000000000000000e+00
18 1 0.00000000000000000e+00
19 1 0.00000000000000000e+00
20 1 0.00000000000000000e+00
21 1 0.00000000000000000e+00
22 1 0.00000000000000000e+00
23 1 0.00000000000000000e+00
24 1 0.00000000000000000e+00
25 1 0.00000000000000000e+00
26 1 0.00000000000000000e+00
27 1 0.00000000000000000e+00
28 1 0.00000000000000000e+00
29 1 0.00000000000000000e+00
30 1 0.00000000000000000e+00
31 1 0.00000000000000000e+00
32 1 0.00000000000000000e+00
33 1 0.00000000000000000e+00
34 1 0.00000000000000000e+00
35 1 0.00000000000000000e+00
36 1 0.00000000000000000e+00
37 1 0.00000000000000000e+00
38 1 0.00000000000000000e+00
39 1 0.00000000000000000e+00
40 1 0.00000000000000000e+00
41 1 0.00000000000000000e+00
42 1 0.00000000000000000e+00
43 1 0.00000000000000000e+00
44 1 0.00000000000000000e+00
45 1 0.00000000000000000e+00
46 1 0.00000000000000000e+00
47 1 0.00000000000000000e+00
48 1 0.00000000000000000e+00
49 1 0.00000000000000000e+00
50 1 0.00000000000000000e+00
51 1 0.00000000000000000e+00
52 1 0.00000000000000000e+00
53 1 0.00000000000000000e+00
54 1 0.00000000000000000e+00
55 1 0.00000000000000000e+00
56 1 0.00000000000000000e+00
57 1 0.00000000000000000e+00
58 1 0.00000000000000000e+00
59 1 0.00000000000000000e+00
60 1 0.00000000000000000e+00
61 1 0.00000000000000000e+00
62 1 0.00000000000000000e+00
63 1 0.00000000000000000e+00
64 1 0.00000000000000000e+00
65 1 0.00000000000000000e+00
66 1 0.00000000000000000e+00
67 1 0.00000000000000000e+00
68 1 0.00000000000000000e+00
69 1 0.00000000000000000e+00
1 2 3.22580645161290383e-02
2 2 3.22580645161290452e-02
3 2 3.19926891183639969e-02
4 2 3.14382334693279891e-02
5 2 3.05766827934023967e-02
6 2 2.93975348992081761e-02
7 2 2.78993454122205518e-02
8 2 2.60907709214208104e-02
9 2 2.39909172109106297e-02
10 2 2.16288751237053677e-02
11 2 1.90424353846113947e-02
12 2 1.62760944684645567e-02
13 2 1.33785690444513140e-02
14 2 1.04001021206828383e-02
15 2 7.38985609649754974e-03
16 2 4.39364775079933555e-03
17 2 1.45220227283543793e-03
18 2 1.97523677281831231e-18
19 2 -1.45220227283543403e-03
20 2 -4.39364775079933555e-03
21 2 -7.38985609649754280e-03
22 2 -1.04001021206828418e-02
23 2 -1.33785690444513175e-02
24 2 -1.62760944684645498e-02
25 2 -1.90424353846113843e-02
26 2 -2.16288751237053607e-02
27 2 -2.39909172109106297e-02
28 2 -2.60907709214208174e-02
29 2 -2.78993454122205414e-02
30 2 -2.93975348992081657e-02
31 2 -3.05766827934023967e-02
32 2 -3.14382334693280238e-02
33 2 -3.19926891183639900e-02
34 2 -3.22580645161290452e-02
35 2 -3.22580645161290383e-02
36 2 -3.22580645161290452e-02
37 2 -3.19926891183639969e-02
38 2 -3.14382334693279891e-02
39 2 -3.05766827934023967e-02
40 2 -2.93975348992081761e-02
41 2 -2.78993454122205518e-02
42 2 -2.60907709214208104e-02
43 2 -2.39909172109106297e-02
44 2 -2.16288751237053677e-02
45 2 -1.90424353846113947e-02
46 2 -1.62760944684645671e-02
47 2 -1.33785690444513210e-02
48 2 -1.04001021206828418e-02
49 2 -7.38985609649755754e-03
50 2 -4.39364775079934509e-03
51 2 -1.45220227283544118e-03
52 2 -5.92571031845493500e-18
53 2 1.45220227283543207e-03
54 2 4.39364775079933295e-03
55 2 7.38985609649754280e-03
56 2 1.04001021206828418e-02
57 2 1.33785690444513175e-02
58 2 1.62760944684645498e-02
59 2 1.90424353846113843e-02
60 2 2.16288751237053607e-02
61 2 2.39909172109106297e-02
62 2 2.60907709214208174e-02
63 2 2.78993454122205414e-02
64 2 2.93975348992081657e-02
65 2 3.05766827934023967e-02
66 2 3.14382334693280238e-02
67 2 3.19926891183639900e-02
68 2 3.22580645161290452e-02
69 2 3.22580645161290383e-02
1 3 9.87124463519313544e-02
2 3 9.87124463519313683e-02
3 3 9.79003748557662062e-02
4 3 9.62036929769564536e-02
5 3 9.35672739557764227e-02
6 3 8.99589801851305992e-02
7 3 8.53743917549924930e-02
8 3 7.98399985706997189e-02
9 3 7.34142659715848744e-02
10 3 6.61862144343430270e-02
11 3 5.82714868207207040e-02
12 3 4.98062461631554806e-02
13 3 4.09395696510462953e-02
14 3 3.18252052019178666e-02
15 3 2.26135939776942116e-02
16 3 1.34449392545919581e-02
17 3 4.44386360743204752e-03
18 3 6.04439407304487810e-18
19 3 -4.44386360743203625e-03
20 3 -1.34449392545919564e-02
21 3 -2.26135939776941908e-02
22 3 -3.18252052019178736e-02
23 3 -4.09395696510463092e-02
24 3 -4.98062461631554668e-02
25 3 -5.82714868207206693e-02
26 3 -6.61862144343430131e-02
27 3 -7.34142659715848744e-02
28 3 -7.98399985706997606e-02
29 3 -8.53743917549924791e-02
30 3 -8.99589801851305715e-02
31 3 -9.35672739557764505e-02
32 3 -9.62036929769565508e-02
33 3 -9.79003748557661924e-02
34 3 -9.87124463519313683e-02
35 3 -9.87124463519313544e-02
36 3 -9.87124463519313683e-02
37 3 -9.79003748557662062e-02
38 3 -9.62036929769564536e-02
39 3 -9.35672739557764227e-02
40 3 -8.99589801851305992e-02
41 3 -8.53743917549924930e-02
42 3 -7.98399985706997189e-02
43 3 -7.34142659715848744e-02
44 3 -6.61862144343430270e-02
45 3 -5.82714868207207040e-02
46 3 -4.98062461631555153e-02
47 3 -4.09395696510463161e-02
48 3 -3.18252052019178874e-02
49 3 -2.26135939776942428e-02
50 3 -1.34449392545919859e-02
51 3 -4.44386360743205880e-03
52 3 -1.81331822191346304e-17
53 3 4.44386360743203018e-03
54 3 1.34449392545919477e-02
55 3 2.26135939776941908e-02
56 3 3.18252052019178736e-02
57 3 4.09395696510463092e-02
58 3 4.98062461631554668e-02
59 3 5.82714868207206693e-02
60 3 6.61862144343430131e-02
61 3 7.34142659715848744e-02
62 3 7.98399985706997606e-02
63 3 8.53743917549924791e-02
64 3 8.99589801851305715e-02
65 3 9.35672739557764505e-02
66 3 9.62036929769565508e-02
67 3 9.79003748557661924e-02
68 3 9.87124463519313683e-02
69 3 9.87124463519313544e-02
1 4 1.68949771689497763e-01
2 4 1.68949771689497763e-01
3 4 1.67559883190700948e-01
4 4 1.64655953375886732e-01
5 4 1.60143630885993371e-01
6 4 1.53967911093113141e-01
7 4 1.46121229168114014e-01
8 4 1.36648923501687947e-01
9 4 1.25651059547554705e-01
10 4 1.13279998935571016e-01
11 4 9.97336684299053172e-02
12 4 8.52451157777572577e-02
13 4 7.00694917533591505e-02
14 4 5.44699412439416247e-02
15 4 3.87039495099665981e-02
16 4 2.30114793158303112e-02
17 4 7.60582651571802167e-03
18 4 1.03451898558109758e-17
19 4 -7.60582651571800519e-03
20 4 -2.30114793158303112e-02
21 4 -3.87039495099665704e-02
22 4 -5.44699412439416386e-02
23 4 -7.00694917533591782e-02
24 4 -8.52451157777572438e-02
25 4 -9.97336684299052617e-02
26 4 -1.13279998935570975e-01
27 4 -1.25651059547554705e-01
28 4 -1.36648923501688002e-01
29 4 -1.46121229168113959e-01
30 4 -1.53967911093113058e-01
31 4 -1.60143630885993399e-01
32 4 -1.64655953375886871e-01
33 4 -1.67559883190700892e-01
34 4 -1.68949771689497763e-01
35 4 -1.68949771689497763e-01
36 4 -1.68949771689497763e-01
37 4 -1.67559883190700948e-01
38 4 -1.64655953375886732e-01
39 4 -1.60143630885993371e-01
40 4 -1.53967911093113141e-01
41 4 -1.46121229168114014e-01
42 4 -1.36648923501687947e-01
43 4 -1.25651059547554705e-01
44 4 -1.13279998935571016e-01
45 4 -9.97336684299053311e-02
46 4 -8.52451157777573132e-02
47 4 -7.00694917533591921e-02
48 4 -5.44699412439416525e-02
49 4 -3.87039495099666467e-02
50 4 -2.30114793158303528e-02
51 4 -7.60582651571804422e-03
52 4 -3.10355695674329212e-17
53 4 7.60582651571799131e-03
54 4 2.30114793158302938e-02
55 4 3.87039495099665704e-02
56 4 5.44699412439416386e-02
57 4 7.00694917533591782e-02
58 4 8.52451157777572438e-02
59 4 9.97336684299052617e-02
60 4 1.13279998935570975e-01
61 4 1.25651059547554705e-01
62 4 1.36648923501688002e-01
63 4 1.46121229168113959e-01
64 4 1.53967911093113058e-01
65 4 1.60143630885993399e-01
66 4 1.64655953375886871e-01
67 4 1.67559883190700892e-01
68 4 1.68949771689497763e-01
69 4 1.68949771689497763e-01
1 5 2.42718446601941779e-01
2 5 2.42718446601941751e-01
3 5 2.40721689968272867e-01
4 5 2.36549814939118336e-01
5 5 2.30067273445503484e-01
6 5 2.21195044144527536e-01
7 5 2.09922259169620568e-01
8 5 1.96314053049525455e-01
9 5 1.80514182897628467e-01
10 5 1.62741536124967529e-01
11 5 1.43280460418192507e-01
12 5 1.22465759350097347e-01
13 5 1.00663990383007440e-01
14 5 7.82531955682446573e-02
15 5 5.56032861629669611e-02
16 5 3.30590000666940373e-02
17 5 1.09267646742472226e-02
18 5 1.48622184362542876e-17
19 5 -1.09267646742472000e-02
20 5 -3.30590000666940373e-02
21 5 -5.56032861629669403e-02
22 5 -7.82531955682446850e-02
23 5 -1.00663990383007468e-01
24 5 -1.22465759350097306e-01
25 5 -1.43280460418192424e-01
26 5 -1.62741536124967501e-01
27 5 -1.80514182897628467e-01
28 5 -1.96314053049525539e-01
29 5 -2.09922259169620540e-01
30 5 -2.21195044144527453e-01
31 5 -2.30067273445503540e-01
32 5 -2.36549814939118502e-01
33 5 -2.40721689968272756e-01
34 5 -2.42718446601941751e-01
35 5 -2.42718446601941779e-01
36 5 -2.42718446601941751e-01
37 5 -2.40721689968272867e-01
38 5 -2.36549814939118336e-01
39 5 -2.30067273445503484e-01
40 5 -2.21195044144527536e-01
41 5 -2.09922259169620568e-01
42 5 -1.96314053049525455e-01
43 5 -1.80514182897628467e-01
44 5 -1.62741536124967529e-01
45 5 -1.43280460418192535e-01
46 5 -1.22465759350097417e-01
47 5 -1.00663990383007496e-01
48 5 -7.82531955682446989e-02
49 5 -5.56032861629670375e-02
50 5 -3.30590000666940928e-02
51 5 -1.09267646742472573e-02
52 5 -4.45866553087628567e-17
53 5 1.09267646742471775e-02
54 5 3.30590000666940165e-02
55 5 5.56032861629669403e-02
56 5 7.82531955682446850e-02
57 5 1.00663990383007468e-01
58 5 1.22465759350097306e-01
59 5 1.43280460418192424e-01
60 5 1.62741536124967501e-01
61 5 1.80514182897628467e-01
62 5 1.96314053049525539e-01
63 5 2.09922259169620540e-01
64 5 2.21195044144527453e-01
65 5 2.30067273445503540e-01
66 5 2.36549814939118502e-01
67 5 2.40721689968272756e-01
68 5 2.42718446601941751e-01
69 5 2.42718446601941779e-01
1 6 3.19587628865979412e-01
2 6 3.19587628865979356e-01
3 6 3.16958497347915591e-01
4 6 3.11465385196125766e-01
5 6 3.02929816128450546e-01
6 6 2.91247742661227438e-01
7 6 2.76404855063339561e-01
8 6 2.58486916035931880e-01
9 6 2.37683210718403121e-01
10 6 2.14281948390524196e-01
11 6 1.88657529944448926e-01
12 6 1.61250791589633347e-01
13 6 1.32544379914615568e-01
14 6 1.03036063278105217e-01
15 6 7.32129042137540237e-02
16 6 4.35288194692594124e-02
17 6 1.43872823112871657e-02
18 6 1.95690983368906974e-17
19 6 -1.43872823112871345e-02
20 6 -4.35288194692594124e-02
21 6 -7.32129042137539959e-02
22 6 -1.03036063278105272e-01
23 6 -1.32544379914615623e-01
24 6 -1.61250791589633291e-01
25 6 -1.88657529944448815e-01
26 6 -2.14281948390524196e-01
27 6 -2.37683210718403121e-01
28 6 -2.58486916035931935e-01
29 6 -2.76404855063339561e-01
30 6 -2.91247742661227271e-01
31 6 -3.02929816128450602e-01
32 6 -3.11465385196125932e-01
33 6 -3.16958497347915424e-01
34 6 -3.19587628865979356e-01
35 6 -3.19587628865979412e-01
36 6 -3.19587628865979356e-01
37 6 -3.16958497347915591e-01
38 6 -3.11465385196125766e-01
39 6 -3.02929816128450546e-01
40 6 -2.91247742661227438e-01
41 6 -2.76404855063339561e-01
42 6 -2.58486916035931880e-01
43 6 -2.37683210718403121e-01
44 6 -2.14281948390524196e-01
45 6 -1.88657529944448982e-01
46 6 -1.61250791589633430e-01
47 6 -1.32544379914615623e-01
48 6 -1.03036063278105286e-01
49 6 -7.32129042137541208e-02
50 6 -4.35288194692594749e-02
51 6 -1.43872823112872125e-02
52 6 -5.87072950106720829e-17
53 6 1.43872823112871084e-02
54 6 4.35288194692593777e-02
55 6 7.32129042137539959e-02
56 6 1.03036063278105272e-01
57 6 1.32544379914615623e-01
58 6 1.61250791589633291e-01
59 6 1.88657529944448815e-01
60 6 2.14281948390524196e-01
61 6 2.37683210718403121e-01
62 6 2.58486916035931935e-01
63 6 2.76404855063339561e-01
64 6 2.91247742661227271e-01
65 6 3.02929816128450602e-01
66 6 3.11465385196125932e-01
67 6 3.16958497347915424e-01
68 6 3.19587628865979356e-01
69 6 3.19587628865979412e-01
1 7 3.98907103825136611e-01
2 7 3.98907103825136611e-01
3 7 3.95625439753320984e-01
4 7 3.88768974541471302e-01
5 7 3.78114935308577260e-01
6 7 3.63533450693486915e-01
7 7 3.45006659387186165e-01
8 7 3.22641609809700969e-01
9 7 2.96674566384102334e-01
10 7 2.67465269972378294e-01
11 7 2.35481045220631569e-01
12 7 2.01272140885985107e-01
13 7 1.65440993156247634e-01
14 7 1.28608913109864831e-01
15 7 9.13838488872893012e-02
16 7 5.43323762844748551e-02
17 7 1.79581078875770163e-02
18 7 2.44260153928297210e-17
19 7 -1.79581078875769781e-02
20 7 -5.43323762844748551e-02
21 7 -9.13838488872892735e-02
22 7 -1.28608913109864886e-01
23 7 -1.65440993156247690e-01
24 7 -2.01272140885985079e-01
25 7 -2.35481045220631430e-01
26 7 -2.67465269972378294e-01
27 7 -2.96674566384102334e-01
28 7 -3.22641609809701080e-01
29 7 -3.45006659387186221e-01
30 7 -3.63533450693486804e-01
31 7 -3.78114935308577260e-01
32 7 -3.88768974541471413e-01
33 7 -3.95625439753320818e-01
34 7 -3.98907103825136611e-01
35 7 -3.98907103825136611e-01
36 7 -3.98907103825136611e-01
37 7 -3.95625439753320984e-01
38 7 -3.88768974541471302e-01
39 7 -3.78114935308577260e-01
40 7 -3.63533450693486915e-01
41 7 -3.45006659387186165e-01
42 7 -3.22641609809700969e-01
43 7 -2.96674566384102334e-01
44 7 -2.67465269972378294e-01
45 7 -2.35481045220631652e-01
46 7 -2.01272140885985218e-01
47 7 -1.65440993156247718e-01
48 7 -1.28608913109864914e-01
49 7 -9.13838488872894261e-02
50 7 -5.43323762844749314e-02
51 7 -1.79581078875770787e-02
52 7 -7.32780461784891538e-17
53 7 1.79581078875769469e-02
54 7 5.43323762844748134e-02
55 7 9.13838488872892735e-02
56 7 1.28608913109864886e-01
57 7 1.65440993156247690e-01
58 7 2.01272140885985079e-01
59 7 2.35481045220631430e-01
60 7 2.67465269972378294e-01
61 7 2.96674566384102334e-01
62 7 3.22641609809701080e-01
63 7 3.45006659387186221e-01
64 7 3.63533450693486804e-01
65 7 3.78114935308577260e-01
66 7 3.88768974541471413e-01
67 7 3.95625439753320818e-01
68 7 3.98907103825136611e-01
69 7 3.98907103825136611e-01
1 8 4.79768786127167612e-01
2 8 4.79768786127167668e-01
3 8 4.75821902321101664e-01
4 8 4.67575576396421499e-01
5 8 4.54761877615169896e-01
6 8 4.37224608645448820e-01
7 8 4.14942287547071909e-01
8 8 3.88043662316853832e-01
9 8 3.56812890079034717e-01
10 8 3.21682634065282580e-01
11 8 2.83214949390780957e-01
12 8 2.42071624666816670e-01
13 8 1.98977214747822095e-01
14 8 1.54678975471196217e-01
15 8 1.09908090961203367e-01
16 8 6.53459864902121018e-02
17 8 2.15983609711305168e-02
18 8 2.93773654130723474e-17
19 8 -2.15983609711304717e-02
20 8 -6.53459864902121018e-02
21 8 -1.09908090961203325e-01
22 8 -1.54678975471196273e-01
23 8 -1.98977214747822179e-01
24 8 -2.42071624666816670e-01
25 8 -2.83214949390780846e-01
26 8 -3.21682634065282580e-01
27 8 -3.56812890079034717e-01
28 8 -3.88043662316854054e-01
29 8 -4.14942287547071909e-01
30 8 -4.37224608645448654e-01
31 8 -4.54761877615169841e-01
32 8 -4.67575576396421666e-01
33 8 -4.75821902321101387e-01
34 8 -4.79768786127167668e-01
35 8 -4.79768786127167612e-01
36 8 -4.79768786127167668e-01
37 8 -4.75821902321101664e-01
38 8 -4.67575576396421499e-01
39 8 -4.54761877615169896e-01
40 8 -4.37224608645448820e-01
41 8 -4.14942287547071909e-01
42 8 -3.88043662316853832e-01
43 8 -3.56812890079034717e-01
44 8 -3.21682634065282580e-01
45 8 -2.83214949390781068e-01
46 8 -2.42071624666816781e-01
47 8 -1.98977214747822206e-01
48 8 -1.54678975471196328e-01
49 8 -1.09908090961203506e-01
50 8 -6.53459864902121851e-02
51 8 -2.15983609711305931e-02
52 8 -8.81320962392170174e-17
53 8 2.15983609711304335e-02
54 8 6.53459864902120463e-02
55 8 1.09908090961203325e-01
56 8 1.54678975471196273e-01
57 8 1.98977214747822179e-01
58 8 2.42071624666816670e-01
59 8 2.83214949390780846e-01
60 8 3.21682634065282580e-01
61 8 3.56812890079034717e-01
62 8 3.88043662316854054e-01
63 8 4.14942287547071909e-01
64 8 4.37224608645448654e-01
65 8 4.54761877615169841e-01
66 8 4.67575576396421666e-01
67 8 4.75821902321101387e-01
68 8 4.79768786127167668e-01
69 8 4.79768786127167612e-01
1 9 5.60975609756097615e-01
2 9 5.60975609756097504e-01
3 9 5.56360666863256914e-01
4 9 5.46718547893435547e-01
5 9 5.31735971504778471e-01
6 9 5.11230302027693373e-01
7 9 4.85176421436908367e-01
8 9 4.53724869926171337e-01
9 9 4.17207901740957676e-01
10 9 3.76131413736632170e-01
11 9 3.31152595834827312e-01
12 9 2.83045252585737150e-01
13 9 2.32656578748628912e-01
14 9 1.80860312488947933e-01
15 9 1.28511399922018266e-01
16 9 7.64066060078031212e-02
17 9 2.52541517202845497e-02
18 9 3.43498492443769808e-17
19 9 -2.52541517202844942e-02
20 9 -7.64066060078031073e-02
21 9 -1.28511399922018210e-01
22 9 -1.80860312488948016e-01
23 9 -2.32656578748628967e-01
24 9 -2.83045252585737206e-01
25 9 -3.31152595834827201e-01
26 9 -3.76131413736632170e-01
27 9 -4.17207901740957676e-01
28 9 -4.53724869926171614e-01
29 9 -4.85176421436908367e-01
30 9 -5.11230302027693262e-01
31 9 -5.31735971504778360e-01
32 9 -5.46718547893435769e-01
33 9 -5.56360666863256692e-01
34 9 -5.60975609756097504e-01
35 9 -5.60975609756097615e-01
36 9 -5.60975609756097504e-01
37 9 -5.56360666863256914e-01
38 9 -5.46718547893435547e-01
39 9 -5.31735971504778471e-01
40 9 -5.11230302027693373e-01
41 9 -4.85176421436908367e-01
42 9 -4.53724869926171337e-01
43 9 -4.17207901740957676e-01
44 9 -3.76131413736632170e-01
45 9 -3.31152595834827423e-01
46 9 -2.83045252585737261e-01
47 9 -2.32656578748629078e-01
48 9 -1.80860312488948044e-01
49 9 -1.28511399922018432e-01
50 9 -7.64066060078031906e-02
51 9 -2.52541517202846330e-02
52 9 -1.03049547733130930e-16
53 9 2.52541517202844457e-02
54 9 7.64066060078030240e-02
55 9 1.28511399922018210e-01
56 9 1.80860312488948016e-01
57 9 2.32656578748628967e-01
58 9 2.83045252585737206e-01
59 9 3.31152595834827201e-01
60 9 3.76131413736632170e-01
61 9 4.17207901740957676e-01
62 9 4.53724869926171614e-01
63 9 4.85176421436908367e-01
64 9 5.11230302027693262e-01
65 9 5.31735971504778360e-01
66 9 5.46718547893435769e-01
67 9 5.56360666863256692e-01
68 9 5.60975609756097504e-01
69 9 5.60975609756097615e-01
1 10 6.41025641025641080e-01
2 10 6.41025641025640858e-01
3 10 6.35752155557233189e-01
4 10 6.24734126634081899e-01
5 10 6.07613568330432452e-01
6 10 5.84181783253495679e-01
7 10 5.54410069088997814e-01
8 10 5.18470447797464429e-01
9 10 4.76742585601428792e-01
10 10 4.29804569765939781e-01
11 10 3.78407369822405748e-01
12 10 3.23435210591282662e-01
13 10 2.65856179729481168e-01
14 10 2.06668695987928197e-01
15 10 1.46849704481681942e-01
16 10 8.73096668428073458e-02
17 10 2.88578656781400926e-02
18 10 3.92514999726715759e-17
19 10 -2.88578656781400301e-02
20 10 -8.73096668428073319e-02
21 10 -1.46849704481681914e-01
22 10 -2.06668695987928308e-01
23 10 -2.65856179729481279e-01
24 10 -3.23435210591282774e-01
25 10 -3.78407369822405582e-01
26 10 -4.29804569765939781e-01
27 10 -4.76742585601428792e-01
28 10 -5.18470447797464651e-01
29 10 -5.54410069088997925e-01
30 10 -5.84181783253495568e-01
31 10 -6.07613568330432230e-01
32 10 -6.24734126634082010e-01
33 10 -6.35752155557233189e-01
34 10 -6.41025641025640858e-01
35 10 -6.41025641025641080e-01
36 10 -6.41025641025640858e-01
37 10 -6.35752155557233189e-01
38 10 -6.24734126634081899e-01
39 10 -6.07613568330432452e-01
40 10 -5.84181783253495679e-01
41 10 -5.54410069088997814e-01
42 10 -5.18470447797464429e-01
43 10 -4.76742585601428792e-01
44 10 -4.29804569765939781e-01
45 10 -3.78407369822405859e-01
46 10 -3.23435210591282829e-01
47 10 -2.65856179729481334e-01
48 10 -2.06668695987928364e-01
49 10 -1.46849704481682136e-01
50 10 -8.73096668428074291e-02
51 10 -2.88578656781401863e-02
52 10 -1.17754499918014715e-16
53 10 2.88578656781399677e-02
54 10 8.73096668428072348e-02
55 10 1.46849704481681914e-01
56 10 2.06668695987928308e-01
57 10 2.65856179729481279e-01
58 10 3.23435210591282774e-01
59 10 3.78407369822405582e-01
60 10 4.29804569765939781e-01
61 10 4.76742585601428792e-01
62 10 5.18470447797464651e-01
63 10 5.54410069088997925e-01
64 10 5.84181783253495568e-01
65 10 6.07613568330432230e-01
66 10 6.24734126634082010e-01
67 10 6.35752155557233189e-01
68 10 6.41025641025640858e-01
69 10 6.41025641025641080e-01
1 11 7.18120805369127480e-01
2 11 7.18120805369127257e-01
3 11 7.12213085943713797e-01
4 11 6.99869935689670708e-01
5 11 6.80690314266548802e-01
6 11 6.54440424568278556e-01
7 11 6.21088112297553785e-01
8 11 5.80826088230555482e-01
9 11 5.34079680460338824e-01
10 11 4.81496501914970898e-01
11 11 4.23917840072187690e-01
12 11 3.62334264106690618e-01
13 11 2.97830292083523462e-01
14 11 2.31524421035603861e-01
15 11 1.64511091758941935e-01
16 11 9.78102657006805487e-02
17 11 3.23285566375513048e-02
18 11 4.39722172848210712e-17
19 11 -3.23285566375512284e-02
20 11 -9.78102657006805210e-02
21 11 -1.64511091758941908e-01
22 11 -2.31524421035603944e-01
23 11 -2.97830292083523573e-01
24 11 -3.62334264106690729e-01
25 11 -4.23917840072187524e-01
26 11 -4.81496501914970843e-01
27 11 -5.34079680460338824e-01
28 11 -5.80826088230555593e-01
29 11 -6.21088112297553896e-01
30 11 -6.54440424568278445e-01
31 11 -6.80690314266548691e-01
32 11 -6.99869935689670930e-01
33 11 -7.12213085943713797e-01
34 11 -7.18120805369127257e-01
35 11 -7.18120805369127480e-01
36 11 -7.18120805369127257e-01
37 11 -7.12213085943713797e-01
38 11 -6.99869935689670708e-01
39 11 -6.80690314266548802e-01
40 11 -6.54440424568278556e-01
41 11 -6.21088112297553785e-01
42 11 -5.80826088230555482e-01
43 11 -5.34079680460338824e-01
44 11 -4.81496501914970898e-01
45 11 -4.23917840072187746e-01
46 11 -3.62334264106690784e-01
47 11 -2.97830292083523629e-01
48 11 -2.31524421035604056e-01
49 11 -1.64511091758942157e-01
50 11 -9.78102657006806320e-02
51 11 -3.23285566375514019e-02
52 11 -1.31916651854463183e-16
53 11 3.23285566375511590e-02
54 11 9.78102657006804238e-02
55 11 1.64511091758941908e-01
56 11 2.31524421035603944e-01
57 11 2.97830292083523573e-01
58 11 3.62334264106690729e-01
59 11 4.23917840072187524e-01
60 11 4.81496501914970843e-01
61 11 5.34079680460338824e-01
62 11 5.80826088230555593e-01
63 11 6.21088112297553896e-01
64 11 6.54440424568278445e-01
65 11 6.80690314266548691e-01
66 11 6.99869935689670930e-01
67 11 7.12213085943713797e-01
68 11 7.18120805369127257e-01
69 11 7.18120805369127480e-01
1 12 7.90209790209790319e-01
2 12 7.90209790209789986e-01
3 12 7.83709020850552940e-01
4 12 7.70126796105286338e-01
5 12 7.49021816960060205e-01
6 12 7.20136816447036532e-01
7 12 6.83436412440619145e-01
8 12 6.39132661103056221e-01
9 12 5.87693587341397650e-01
10 12 5.29831815093285696e-01
11 12 4.66473084981074704e-01
12 12 3.98707405056162978e-01
13 12 3.27728163375614945e-01
14 12 2.54766137963300554e-01
15 12 1.81025635706509730e-01
16 12 1.07629007489860679e-01
17 12 3.55738780541436095e-02
18 12 4.83863945117660642e-17
19 12 -3.55738780541435193e-02
20 12 -1.07629007489860665e-01
21 12 -1.81025635706509730e-01
22 12 -2.54766137963300665e-01
23 12 -3.27728163375615111e-01
24 12 -3.98707405056163089e-01
25 12 -4.66473084981074537e-01
26 12 -5.29831815093285696e-01
27 12 -5.87693587341397650e-01
28 12 -6.39132661103056332e-01
29 12 -6.83436412440619256e-01
30 12 -7.20136816447036199e-01
31 12 -7.49021816960060205e-01
32 12 -7.70126796105286560e-01
33 12 -7.83709020850552829e-01
34 12 -7.90209790209789986e-01
35 12 -7.90209790209790319e-01
36 12 -7.90209790209789986e-01
37 12 -7.83709020850552940e-01
38 12 -7.70126796105286338e-01
39 12 -7.49021816960060205e-01
40 12 -7.20136816447036532e-01
41 12 -6.83436412440619145e-01
42 12 -6.39132661103056221e-01
43 12 -5.87693587341397650e-01
44 12 -5.29831815093285696e-01
45 12 -4.66473084981074815e-01
46 12 -3.98707405056163200e-01
47 12 -3.27728163375615056e-01
48 12 -2.54766137963300832e-01
49 12 -1.81025635706509952e-01
50 12 -1.07629007489860762e-01
51 12 -3.55738780541437136e-02
52 12 -1.45159183535298143e-16
53 12 3.55738780541434430e-02
54 12 1.07629007489860554e-01
55 12 1.81025635706509730e-01
56 12 2.54766137963300665e-01
57 12 3.27728163375615111e-01
58 12 3.98707405056163089e-01
59 12 4.66473084981074537e-01
60 12 5.29831815093285696e-01
61 12 5.87693587341397650e-01
62 12 6.39132661103056332e-01
63 12 6.83436412440619256e-01
64 12 7.20136816447036199e-01
65 12 7.49021816960060205e-01
66 12 7.70126796105286560e-01
67 12 7.83709020850552829e-01
68 12 7.90209790209789986e-01
69 12 7.90209790209790319e-01
1 13 8.55072463768116076e-01
2 13 8.55072463768115743e-01
3 13 8.48038092717213643e-01
4 13 8.33341000223201456e-01
5 13 8.10503664190333373e-01
6 13 7.79247700444228086e-01
7 13 7.39534822593497787e-01
8 13 6.91594492975052599e-01
9 13 6.35933153315297317e-01
10 13 5.73321921757349195e-01
11 13 5.04762526354408991e-01
12 13 4.31434446127850146e-01
13 13 3.54629025830455746e-01
14 13 2.75678069256940661e-01
15 13 1.95884736239043566e-01
16 13 1.16463503423362133e-01
17 13 3.84938834350147044e-02
18 13 5.23580877896332221e-17
19 13 -3.84938834350146072e-02
20 13 -1.16463503423362105e-01
21 13 -1.95884736239043566e-01
22 13 -2.75678069256940828e-01
23 13 -3.54629025830455857e-01
24 13 -4.31434446127850146e-01
25 13 -5.04762526354408880e-01
26 13 -5.73321921757349195e-01
27 13 -6.35933153315297317e-01
28 13 -6.91594492975052710e-01
29 13 -7.39534822593498009e-01
30 13 -7.79247700444227753e-01
31 13 -8.10503664190333262e-01
32 13 -8.33341000223201567e-01
33 13 -8.48038092717213532e-01
34 13 -8.55072463768115743e-01
35 13 -8.55072463768116076e-01
36 13 -8.55072463768115743e-01
37 13 -8.48038092717213643e-01
38 13 -8.33341000223201456e-01
39 13 -8.10503664190333373e-01
40 13 -7.79247700444228086e-01
41 13 -7.39534822593497787e-01
42 13 -6.91594492975052599e-01
43 13 -6.35933153315297317e-01
44 13 -5.73321921757349195e-01
45 13 -5.04762526354409102e-01
46 13 -4.31434446127850313e-01
47 13 -3.54629025830455802e-01
48 13 -2.75678069256940939e-01
49 13 -1.95884736239043789e-01
50 13 -1.16463503423362216e-01
51 13 -3.84938834350148154e-02
52 13 -1.57074263368899623e-16
53 13 3.84938834350145240e-02
54 13 1.16463503423361994e-01
55 13 1.95884736239043566e-01
56 13 2.75678069256940828e-01
57 13 3.54629025830455857e-01
58 13 4.31434446127850146e-01
59 13 5.04762526354408880e-01
60 13 5.73321921757349195e-01
61 13 6.35933153315297317e-01
62 13 6.91594492975052710e-01
63 13 7.39534822593498009e-01
64 13 7.79247700444227753e-01
65 13 8.10503664190333262e-01
66 13 8.33341000223201567e-01
67 13 8.48038092717213532e-01
68 13 8.55072463768115743e-01
69 13 8.55072463768116076e-01
1 14 9.10447761194029925e-01
2 14 9.10447761194029703e-01
3 14 9.02957837654124074e-01
4 14 8.87308947619391719e-01
5 14 8.62992644213790294e-01
6 14 8.29712514841830395e-01
7 14 7.87427793649388308e-01
8 14 7.36382803170249622e-01
9 14 6.77116782773611425e-01
10 14 6.10450788939206457e-01
11 14 5.37451422571643689e-01
12 14 4.59374546863678568e-01
13 14 3.77595135269513826e-01
14 14 2.93531240450914055e-01
15 14 2.08570416096669486e-01
16 14 1.24005789503903674e-01
17 14 4.09867835512210676e-02
18 14 5.57488468268571297e-17
19 14 -4.09867835512209636e-02
20 14 -1.24005789503903646e-01
21 14 -2.08570416096669459e-01
22 14 -2.93531240450914221e-01
23 14 -3.77595135269513993e-01
24 14 -4.59374546863678512e-01
25 14 -5.37451422571643578e-01
26 14 -6.10450788939206457e-01
27 14 -6.77116782773611425e-01
28 14 -7.36382803170249622e-01
29 14 -7.87427793649388752e-01
30 14 -8.29712514841830062e-01
31 14 -8.62992644213790294e-01
32 14 -8.87308947619391719e-01
33 14 -9.02957837654123963e-01
34 14 -9.10447761194029703e-01
35 14 -9.10447761194029925e-01
36 14 -9.10447761194029703e-01
37 14 -9.02957837654124074e-01
38 14 -8.87308947619391719e-01
39 14 -8.62992644213790294e-01
40 14 -8.29712514841830395e-01
41 14 -7.87427793649388308e-01
42 14 -7.36382803170249622e-01
43 14 -6.77116782773611425e-01
44 14 -6.10450788939206457e-01
45 14 -5.37451422571643800e-01
46 14 -4.59374546863678679e-01
47 14 -3.77595135269513882e-01
48 14 -2.93531240450914332e-01
49 14 -2.08570416096669708e-01
50 14 -1.24005789503903771e-01
51 14 -4.09867835512211856e-02
52 14 -1.67246540480571340e-16
53 14 4.09867835512208734e-02
54 14 1.24005789503903521e-01
55 14 2.08570416096669459e-01
56 14 2.93531240450914221e-01
57 14 3.77595135269513993e-01
58 14 4.59374546863678512e-01
59 14 5.37451422571643578e-01
60 14 6.10450788939206457e-01
61 14 6.77116782773611425e-01
62 14 7.36382803170249622e-01
63 14 7.87427793649388752e-01
64 14 8.29712514841830062e-01
65 14 8.62992644213790294e-01
66 14 8.87308947619391719e-01
67 14 9.02957837654123963e-01
68 14 9.10447761194029703e-01
69 14 9.10447761194029925e-01
1 15 9.54198473282442783e-01
2 15 9.54198473282442672e-01
3 15 9.46348628501225031e-01
4 15 9.29947745753022859e-01
5 15 9.04462945224689729e-01
6 15 8.69583570491844537e-01
7 15 8.25266896735530775e-01
8 15 7.71768987179431876e-01
9 15 7.09654993834187953e-01
10 15 6.39785428277544033e-01
11 15 5.63278145918848172e-01
12 15 4.81449359277100253e-01
13 15 3.95740114864494841e-01
14 15 3.07636608531648759e-01
15 15 2.18593071556702156e-01
16 15 1.29964771254560546e-01
17 15 4.29563649407428902e-02
18 15 5.84278053028317410e-17
19 15 -4.29563649407427861e-02
20 15 -1.29964771254560518e-01
21 15 -2.18593071556702129e-01
22 15 -3.07636608531648981e-01
23 15 -3.95740114864495007e-01
24 15 -4.81449359277100142e-01
25 15 -5.63278145918848061e-01
26 15 -6.39785428277544033e-01
27 15 -7.09654993834187953e-01
28 15 -7.71768987179431987e-01
29 15 -8.25266896735531441e-01
30 15 -8.69583570491844315e-01
31 15 -9.04462945224689396e-01
32 15 -9.29947745753022970e-01
33 15 -9.46348628501225031e-01
34 15 -9.54198473282442672e-01
35 15 -9.54198473282442783e-01
36 15 -9.54198473282442672e-01
37 15 -9.46348628501225031e-01
38 15 -9.29947745753022859e-01
39 15 -9.04462945224689729e-01
40 15 -8.69583570491844537e-01
41 15 -8.25266896735530775e-01
42 15 -7.71768987179431876e-01
43 15 -7.09654993834187953e-01
44 15 -6.39785428277544033e-01
45 15 -5.63278145918848172e-01
46 15 -4.81449359277100419e-01
47 15 -3.95740114864494896e-01
48 15 -3.07636608531649036e-01
49 15 -2.18593071556702379e-01
50 15 -1.29964771254560629e-01
51 15 -4.29563649407430220e-02
52 15 -1.75283415908495174e-16
53 15 4.29563649407426890e-02
54 15 1.29964771254560379e-01
55 15 2.18593071556702129e-01
56 15 3.07636608531648981e-01
57 15 3.95740114864495007e-01
58 15 4.81449359277100142e-01
59 15 5.63278145918848061e-01
60 15 6.39785428277544033e-01
61 15 7.09654993834187953e-01
62 15 7.71768987179431987e-01
63 15 8.25266896735531441e-01
64 15 8.69583570491844315e-01
65 15 9.04462945224689396e-01
66 15 9.29947745753022970e-01
67 15 9.46348628501225031e-01
68 15 9.54198473282442672e-01
69 15 9.54198473282442783e-01
1 16 9.84496124031007724e-01
2 16 9.84496124031007724e-01
3 16 9.76397031465108811e-01
4 16 9.59475388904994730e-01
5 16 9.33181396570738730e-01
6 16 8.97194534094438390e-01
7 16 8.51470720061334951e-01
8 16 7.96274148198710563e-01
9 16 7.32187915188799110e-01
10 16 6.60099855519597045e-01
11 16 5.81163318676085394e-01
12 16 4.96736309475542093e-01
13 16 4.08305630449649681e-01
14 16 3.17404667047506361e-01
15 16 2.25533825208611066e-01
16 16 1.34091404611604598e-01
17 16 4.43203127763807450e-02
18 16 6.02830013533774654e-17
19 16 -4.43203127763806409e-02
20 16 -1.34091404611604542e-01
21 16 -2.25533825208611066e-01
22 16 -3.17404667047506528e-01
23 16 -4.08305630449649848e-01
24 16 -4.96736309475541982e-01
25 16 -5.81163318676085283e-01
26 16 -6.60099855519597045e-01
27 16 -7.32187915188799110e-01
28 16 -7.96274148198710563e-01
29 16 -8.51470720061335618e-01
30 16 -8.97194534094438167e-01
31 16 -9.33181396570738508e-01
32 16 -9.59475388904994841e-01
33 16 -9.76397031465108922e-01
34 16 -9.84496124031007724e-01
35 16 -9.84496124031007724e-01
36 16 -9.84496124031007724e-01
37 16 -9.76397031465108811e-01
38 16 -9.59475388904994730e-01
39 16 -9.33181396570738730e-01
40 16 -8.97194534094438390e-01
41 16 -8.51470720061334951e-01
42 16 -7.96274148198710563e-01
43 16 -7.32187915188799110e-01
44 16 -6.60099855519597045e-01
45 16 -5.81163318676085394e-01
46 16 -4.96736309475542315e-01
47 16 -4.08305630449649681e-01
48 16 -3.17404667047506694e-01
49 16 -2.25533825208611344e-01
50 16 -1.34091404611604653e-01
51 16 -4.43203127763808838e-02
52 16 -1.80849004060132384e-16
53 16 4.43203127763805299e-02
54 16 1.34091404611604403e-01
55 16 2.25533825208611066e-01
56 16 3.17404667047506528e-01
57 16 4.08305630449649848e-01
58 16 4.96736309475541982e-01
59 16 5.81163318676085283e-01
60 16 6.60099855519597045e-01
61 16 7.32187915188799110e-01
62 16 7.96274148198710563e-01
63 16 8.51470720061335618e-01
64 16 8.97194534094438167e-01
65 16 9.33181396570738508e-01
66 16 9.59475388904994841e-01
67 16 9.76397031465108922e-01
68 16 9.84496124031007724e-01
69 16 9.84496124031007724e-01
1 17 1.00000000000000000e+00
2 17 1.00000000000000000e+00
3 17 9.91773362669283731e-01
4 17 9.74585237549167926e-01
5 17 9.47877166595474718e-01
6 17 9.11323581875453148e-01
7 17 8.64879707778836160e-01
8 17 8.08813898564044620e-01
9 17 7.43718433538228973e-01
10 17 6.70495128834866283e-01
11 17 5.90315496922952931e-01
12 17 5.04558928522401029e-01
13 17 4.14735640377990600e-01
14 17 3.22403165741167896e-01
15 17 2.29085538991423837e-01
16 17 1.36203080274779453e-01
17 17 4.50182704578985515e-02
18 17 6.12323399573676604e-17
19 17 -4.50182704578984405e-02
20 17 -1.36203080274779426e-01
21 17 -2.29085538991423837e-01
22 17 -3.22403165741168063e-01
23 17 -4.14735640377990822e-01
24 17 -5.04558928522400918e-01
25 17 -5.90315496922952820e-01
26 17 -6.70495128834866283e-01
27 17 -7.43718433538228973e-01
28 17 -8.08813898564044620e-01
29 17 -8.64879707778836937e-01
30 17 -9.11323581875452926e-01
31 17 -9.47877166595474496e-01
32 17 -9.74585237549167926e-01
33 17 -9.91773362669283842e-01
34 17 -1.00000000000000000e+00
35 17 -1.00000000000000000e+00
36 17 -1.00000000000000000e+00
37 17 -9.91773362669283731e-01
38 17 -9.74585237549167926e-01
39 17 -9.47877166595474718e-01
40 17 -9.11323581875453148e-01
41 17 -8.64879707778836160e-01
42 17 -8.08813898564044620e-01
43 17 -7.43718433538228973e-01
44 17 -6.70495128834866283e-01
45 17 -5.90315496922952931e-01
46 17 -5.04558928522401251e-01
47 17 -4.14735640377990600e-01
48 17 -3.22403165741168174e-01
49 17 -2.29085538991424115e-01
50 17 -1.36203080274779509e-01
51 17 -4.50182704578986972e-02
52 17 -1.83697019872102969e-16
53 17 4.50182704578983364e-02
54 17 1.36203080274779259e-01
55 17 2.29085538991423837e-01
56 17 3.22403165741168063e-01
57 17 4.14735640377990822e-01
58 17 5.04558928522400918e-01
59 17 5.90315496922952820e-01
60 17 6.70495128834866283e-01
61 17 7.43718433538228973e-01
62 17 8.08813898564044620e-01
63 17 8.64879707778836937e-01
64 17 9.11323581875452926e-01
65 17 9.47877166595474496e-01
66 17 9.74585237549167926e-01
67 17 9.91773362669283842e-01
68 17 1.00000000000000000e+00
69 17 1.00000000000000000e+00
1 18 1.00000000000000000e+00
2 18 1.00000000000000000e+00
3 18 9.91773362669283731e-01
4 18 9.74585237549167926e-01
5 18 9.47877166595474718e-01
6 18 9.11323581875453259e-01
7 18 8.64879707778836160e-01
8 18 8.08813898564044620e-01
9 18 7.43718433538228973e-01
10 18 6.70495128834866283e-01
11 18 5.90315496922952931e-01
12 18 5.04558928522401029e-01
13 18 4.14735640377990544e-01
14 18 3.22403165741167896e-01
15 18 2.29085538991423837e-01
16 18 1.36203080274779453e-01
17 18 4.50182704578985446e-02
18 18 6.12323399573676604e-17
19 18 -4.50182704578984405e-02
20 18 -1.36203080274779426e-01
21 18 -2.29085538991423837e-01
22 18 -3.22403165741168063e-01
23 18 -4.14735640377990822e-01
24 18 -5.04558928522400918e-01
25 18 -5.90315496922952820e-01
26 18 -6.70495128834866283e-01
27 18 -7.43718433538228973e-01
28 18 -8.08813898564044620e-01
29 18 -8.64879707778836826e-01
30 18 -9.11323581875452926e-01
31 18 -9.47877166595474607e-01
32 18 -9.74585237549167926e-01
33 18 -9.91773362669283842e-01
34 18 -1.00000000000000000e+00
35 18 -1.00000000000000000e+00
36 18 -1.00000000000000000e+00
37 18 -9.91773362669283731e-01
38 18 -9.74585237549167926e-01
39 18 -9.47877166595474718e-01
40 18 -9.11323581875453259e-01
41 18 -8.64879707778836160e-01
42 18 -8.08813898564044620e-01
43 18 -7.43718433538228973e-01
44 18 -6.70495128834866283e-01
45 18 -5.90315496922952931e-01
46 18 -5.04558928522401251e-01
47 18 -4.14735640377990544e-01
48 18 -3.22403165741168174e-01
49 18 -2.29085538991424087e-01
50 18 -1.36203080274779509e-01
51 18 -4.50182704578986972e-02
52 18 -1.83697019872102969e-16
53 18 4.50182704578983295e-02
54 18 1.36203080274779231e-01
55 18 2.29085538991423837e-01
56 18 3.22403165741168063e-01
57 18 4.14735640377990822e-01
58 18 5.04558928522400918e-01
59 18 5.90315496922952820e-01
60 18 6.70495128834866283e-01
61 18 7.43718433538228973e-01
62 18 8.08813898564044620e-01
63 18 8.64879707778836826e-01
64 18 9.11323581875452926e-01
65 18 9.47877166595474607e-01
66 18 9.74585237549167926e-01
67 18 9.91773362669283842e-01
68 18 1.00000000000000000e+00
69 18 1.00000000000000000e+00
1 19 9.84496124031007724e-01
2 19 9.84496124031007613e-01
3 19 9.76397031465108811e-01
4 19 9.59475388904994619e-01
5 19 9.33181396570738619e-01
6 19 8.97194534094438501e-01
7 19 8.51470720061334840e-01
8 19 7.96274148198710674e-01
9 19 7.32187915188798888e-01
10 19 6.60099855519597045e-01
11 19 5.81163318676085394e-01
12 19 4.96736309475542037e-01
13 19 4.08305630449649681e-01
14 19 3.17404667047506417e-01
15 19 2.25533825208611066e-01
16 19 1.34091404611604570e-01
17 19 4.43203127763807311e-02
18 19 6.02830013533774777e-17
19 19 -4.43203127763806340e-02
20 19 -1.34091404611604570e-01
21 19 -2.25533825208611066e-01
22 19 -3.17404667047506472e-01
23 19 -4.08305630449649903e-01
24 19 -4.96736309475541982e-01
25 19 -5.81163318676085283e-01
26 19 -6.60099855519597045e-01
27 19 -7.32187915188798888e-01
28 19 -7.96274148198710674e-01
29 19 -8.51470720061335395e-01
30 19 -8.97194534094438167e-01
31 19 -9.33181396570738730e-01
32 19 -9.59475388904994619e-01
33 19 -9.76397031465108922e-01
34 19 -9.84496124031007613e-01
35 19 -9.84496124031007724e-01
36 19 -9.84496124031007613e-01
37 19 -9.76397031465108811e-01
38 19 -9.59475388904994619e-01
39 19 -9.33181396570738619e-01
40 19 -8.97194534094438501e-01
41 19 -8.51470720061334840e-01
42 19 -7.96274148198710674e-01
43 19 -7.32187915188798888e-01
44 19 -6.60099855519597045e-01
45 19 -5.81163318676085394e-01
46 19 -4.96736309475542259e-01
47 19 -4.08305630449649681e-01
48 19 -3.17404667047506694e-01
49 19 -2.25533825208611233e-01
50 19 -1.34091404611604653e-01
51 19 -4.43203127763808838e-02
52 19 -1.80849004060132384e-16
53 19 4.43203127763805299e-02
54 19 1.34091404611604376e-01
55 19 2.25533825208611011e-01
56 19 3.17404667047506472e-01
57 19 4.08305630449649903e-01
58 19 4.96736309475541982e-01
59 19 5.81163318676085283e-01
60 19 6.60099855519597045e-01
61 19 7.32187915188798888e-01
62 19 7.96274148198710674e-01
63 19 8.51470720061335395e-01
64 19 8.97194534094438167e-01
65 19 9.33181396570738730e-01
66 19 9.59475388904994619e-01
67 19 9.76397031465108922e-01
68 19 9.84496124031007613e-01
69 19 9.84496124031007724e-01
1 20 9.54198473282442783e-01
2 20 9.54198473282442783e-01
3 20 9.46348628501225031e-01
4 20 9.29947745753022748e-01
5 20 9.04462945224689618e-01
6 20 8.69583570491844648e-01
7 20 8.25266896735530775e-01
8 20 7.71768987179432209e-01
9 20 7.09654993834187953e-01
10 20 6.39785428277544255e-01
11 20 5.63278145918848283e-01
12 20 4.81449359277100197e-01
13 20 3.95740114864494841e-01
14 20 3.07636608531648814e-01
15 20 2.18593071556702156e-01
16 20 1.29964771254560546e-01
17 20 4.29563649407428902e-02
18 20 5.84278053028317410e-17
19 20 -4.29563649407428000e-02
20 20 -1.29964771254560518e-01
21 20 -2.18593071556702156e-01
22 20 -3.07636608531648870e-01
23 20 -3.95740114864495118e-01
24 20 -4.81449359277100197e-01
25 20 -5.63278145918848172e-01
26 20 -6.39785428277544255e-01
27 20 -7.09654993834187953e-01
28 20 -7.71768987179432098e-01
29 20 -8.25266896735531330e-01
30 20 -8.69583570491844426e-01
31 20 -9.04462945224689618e-01
32 20 -9.29947745753022748e-01
33 20 -9.46348628501225031e-01
34 20 -9.54198473282442783e-01
35 20 -9.54198473282442783e-01
36 20 -9.54198473282442783e-01
37 20 -9.46348628501225031e-01
38 20 -9.29947745753022748e-01
39 20 -9.04462945224689618e-01
40 20 -8.69583570491844648e-01
41 20 -8.25266896735530775e-01
42 20 -7.71768987179432209e-01
43 20 -7.09654993834187953e-01
44 20 -6.39785428277544255e-01
45 20 -5.63278145918848283e-01
46 20 -4.81449359277100419e-01
47 20 -3.95740114864494841e-01
48 20 -3.07636608531649036e-01
49 20 -2.18593071556702323e-01
50 20 -1.29964771254560602e-01
51 20 -4.29563649407430359e-02
52 20 -1.75283415908495198e-16
53 20 4.29563649407426890e-02
54 20 1.29964771254560379e-01
55 20 2.18593071556702101e-01
56 20 3.07636608531648870e-01
57 20 3.95740114864495118e-01
58 20 4.81449359277100197e-01
59 20 5.63278145918848172e-01
60 20 6.39785428277544255e-01
61 20 7.09654993834187953e-01
62 20 7.71768987179432098e-01
63 20 8.25266896735531330e-01
64 20 8.69583570491844426e-01
65 20 9.04462945224689618e-01
66 20 9.29947745753022748e-01
67 20 9.46348628501225031e-01
68 20 9.54198473282442783e-01
69 20 9.54198473282442783e-01
1 21 9.10447761194029814e-01
2 21 9.10447761194029814e-01
3 21 9.02957837654123963e-01
4 21 8.87308947619391608e-01
5 21 8.62992644213790405e-01
6 21 8.29712514841830617e-01
7 21 7.87427793649388308e-01
8 21 7.36382803170249844e-01
9 21 6.77116782773611425e-01
10 21 6.10450788939206568e-01
11 21 5.37451422571643800e-01
12 21 4.59374546863678512e-01
13 21 3.77595135269513771e-01
14 21 2.93531240450914110e-01
15 21 2.08570416096669514e-01
16 21 1.24005789503903688e-01
17 21 4.09867835512210676e-02
18 21 5.57488468268571297e-17
19 21 -4.09867835512209844e-02
20 21 -1.24005789503903646e-01
21 21 -2.08570416096669459e-01
22 21 -2.93531240450914221e-01
23 21 -3.77595135269514104e-01
24 21 -4.59374546863678512e-01
25 21 -5.37451422571643689e-01
26 21 -6.10450788939206568e-01
27 21 -6.77116782773611425e-01
28 21 -7.36382803170249844e-01
29 21 -7.87427793649388752e-01
30 21 -8.29712514841830284e-01
31 21 -8.62992644213790405e-01
32 21 -8.87308947619391608e-01
33 21 -9.02957837654123963e-01
34 21 -9.10447761194029814e-01
35 21 -9.10447761194029814e-01
36 21 -9.10447761194029814e-01
37 21 -9.02957837654123963e-01
38 21 -8.87308947619391608e-01
39 21 -8.62992644213790405e-01
40 21 -8.29712514841830617e-01
41 21 -7.87427793649388308e-01
42 21 -7.36382803170249844e-01
43 21 -6.77116782773611425e-01
44 21 -6.10450788939206568e-01
45 21 -5.37451422571643800e-01
46 21 -4.59374546863678623e-01
47 21 -3.77595135269513771e-01
48 21 -2.93531240450914388e-01
49 21 -2.08570416096669653e-01
50 21 -1.24005789503903743e-01
51 21 -4.09867835512212064e-02
52 21 -1.67246540480571364e-16
53 21 4.09867835512208803e-02
54 21 1.24005789503903521e-01
55 21 2.08570416096669403e-01
56 21 2.93531240450914221e-01
57 21 3.77595135269514104e-01
58 21 4.59374546863678512e-01
59 21 5.37451422571643689e-01
60 21 6.10450788939206568e-01
61 21 6.77116782773611425e-01
62 21 7.36382803170249844e-01
63 21 7.87427793649388752e-01
64 21 8.29712514841830284e-01
65 21 8.62992644213790405e-01
66 21 8.87308947619391608e-01
67 21 9.02957837654123963e-01
68 21 9.10447761194029814e-01
69 21 9.10447761194029814e-01
1 22 8.55072463768115965e-01
2 22 8.55072463768115965e-01
3 22 8.48038092717213643e-01
4 22 8.33341000223201456e-01
5 22 8.10503664190333484e-01
6 22 7.79247700444228197e-01
7 22 7.39534822593497787e-01
8 22 6.91594492975053043e-01
9 22 6.35933153315297317e-01
10 22 5.73321921757349418e-01
11 22 5.04762526354409102e-01
12 22 4.31434446127850091e-01
13 22 3.54629025830455746e-01
14 22 2.75678069256940772e-01
15 22 1.95884736239043622e-01
16 22 1.16463503423362161e-01
17 22 3.84938834350147044e-02
18 22 5.23580877896332221e-17
19 22 -3.84938834350146281e-02
20 22 -1.16463503423362105e-01
21 22 -1.95884736239043566e-01
22 22 -2.75678069256940828e-01
23 22 -3.54629025830456024e-01
24 22 -4.31434446127850146e-01
25 22 -5.04762526354409102e-01
26 22 -5.73321921757349418e-01
27 22 -6.35933153315297317e-01
28 22 -6.91594492975052821e-01
29 22 -7.39534822593498120e-01
30 22 -7.79247700444227864e-01
31 22 -8.10503664190333595e-01
32 22 -8.33341000223201456e-01
33 22 -8.48038092717213643e-01
34 22 -8.55072463768115965e-01
35 22 -8.55072463768115965e-01
36 22 -8.55072463768115965e-01
37 22 -8.48038092717213643e-01
38 22 -8.33341000223201456e-01
39 22 -8.10503664190333484e-01
40 22 -7.79247700444228197e-01
41 22 -7.39534822593497787e-01
42 22 -6.91594492975053043e-01
43 22 -6.35933153315297317e-01
44 22 -5.73321921757349418e-01
45 22 -5.04762526354409102e-01
46 22 -4.31434446127850202e-01
47 22 -3.54629025830455746e-01
48 22 -2.75678069256940994e-01
49 22 -1.95884736239043733e-01
50 22 -1.16463503423362216e-01
51 22 -3.84938834350148362e-02
52 22 -1.57074263368899648e-16
53 22 3.84938834350145240e-02
54 22 1.16463503423361994e-01
55 22 1.95884736239043511e-01
56 22 2.75678069256940828e-01
57 22 3.54629025830456024e-01
58 22 4.31434446127850146e-01
59 22 5.04762526354409102e-01
60 22 5.73321921757349418e-01
61 22 6.35933153315297317e-01
62 22 6.91594492975052821e-01
63 22 7.39534822593498120e-01
64 22 7.79247700444227864e-01
65 22 8.10503664190333595e-01
66 22 8.33341000223201456e-01
67 22 8.48038092717213643e-01
68 22 8.55072463768115965e-01
69 22 8.55072463768115965e-01
1 23 7.90209790209790208e-01
2 23 7.90209790209790208e-01
3 23 7.83709020850552940e-01
4 23 7.70126796105286338e-01
5 23 7.49021816960060538e-01
6 23 7.20136816447036532e-01
7 23 6.83436412440618923e-01
8 23 6.39132661103056665e-01
9 23 5.87693587341397872e-01
10 23 5.29831815093285918e-01
11 23 4.66473084981074759e-01
12 23 3.98707405056162978e-01
13 23 3.27728163375615000e-01
14 23 2.54766137963300665e-01
15 23 1.81025635706509785e-01
16 23 1.07629007489860706e-01
17 23 3.55738780541436095e-02
18 23 4.83863945117660519e-17
19 23 -3.55738780541435332e-02
20 23 -1.07629007489860637e-01
21 23 -1.81025635706509730e-01
22 23 -2.54766137963300665e-01
23 23 -3.27728163375615222e-01
24 23 -3.98707405056163033e-01
25 23 -4.66473084981074759e-01
26 23 -5.29831815093285918e-01
27 23 -5.87693587341397872e-01
28 23 -6.39132661103056443e-01
29 23 -6.83436412440619256e-01
30 23 -7.20136816447036310e-01
31 23 -7.49021816960060427e-01
32 23 -7.70126796105286338e-01
33 23 -7.83709020850552829e-01
34 23 -7.90209790209790208e-01
35 23 -7.90209790209790208e-01
36 23 -7.90209790209790208e-01
37 23 -7.83709020850552940e-01
38 23 -7.70126796105286338e-01
39 23 -7.49021816960060538e-01
40 23 -7.20136816447036532e-01
41 23 -6.83436412440618923e-01
42 23 -6.39132661103056665e-01
43 23 -5.87693587341397872e-01
44 23 -5.29831815093285918e-01
45 23 -4.66473084981074759e-01
46 23 -3.98707405056163089e-01
47 23 -3.27728163375615000e-01
48 23 -2.54766137963300832e-01
49 23 -1.81025635706509924e-01
50 23 -1.07629007489860776e-01
51 23 -3.55738780541437274e-02
52 23 -1.45159183535298143e-16
53 23 3.55738780541434360e-02
54 23 1.07629007489860554e-01
55 23 1.81025635706509702e-01
56 23 2.54766137963300665e-01
57 23 3.27728163375615222e-01
58 23 3.98707405056163033e-01
59 23 4.66473084981074759e-01
60 23 5.29831815093285918e-01
61 23 5.87693587341397872e-01
62 23 6.39132661103056443e-01
63 23 6.83436412440619256e-01
64 23 7.20136816447036310e-01
65 23 7.49021816960060427e-01
66 23 7.70126796105286338e-01
67 23 7.83709020850552829e-01
68 23 7.90209790209790208e-01
69 23 7.90209790209790208e-01
1 24 7.18120805369127480e-01
2 24 7.18120805369127702e-01
3 24 7.12213085943713908e-01
4 24 6.99869935689670597e-01
5 24 6.80690314266549135e-01
6 24 6.54440424568278667e-01
7 24 6.21088112297553674e-01
8 24 5.80826088230555926e-01
9 24 5.34079680460339046e-01
10 24 4.81496501914971009e-01
11 24 4.23917840072187746e-01
12 24 3.62334264106690562e-01
13 24 2.97830292083523518e-01
14 24 2.31524421035603889e-01
15 24 1.64511091758941963e-01
16 24 9.78102657006805487e-02
17 24 3.23285566375513117e-02
18 24 4.39722172848210651e-17
19 24 -3.23285566375512423e-02
20 24 -9.78102657006805071e-02
21 24 -1.64511091758941935e-01
22 24 -2.31524421035603917e-01
23 24 -2.97830292083523684e-01
24 24 -3.62334264106690673e-01
25 24 -4.23917840072187746e-01
26 24 -4.81496501914971009e-01
27 24 -5.34079680460339046e-01
28 24 -5.80826088230555593e-01
29 24 -6.21088112297553896e-01
30 24 -6.54440424568278334e-01
31 24 -6.80690314266548913e-01
32 24 -6.99869935689670708e-01
33 24 -7.12213085943713686e-01
34 24 -7.18120805369127702e-01
35 24 -7.18120805369127480e-01
36 24 -7.18120805369127702e-01
37 24 -7.12213085943713908e-01
38 24 -6.99869935689670597e-01
39 24 -6.80690314266549135e-01
40 24 -6.54440424568278667e-01
41 24 -6.21088112297553674e-01
42 24 -5.80826088230555926e-01
43 24 -5.34079680460339046e-01
44 24 -4.81496501914971009e-01
45 24 -4.23917840072187746e-01
46 24 -3.62334264106690729e-01
47 24 -2.97830292083523573e-01
48 24 -2.31524421035604056e-01
49 24 -1.64511091758942074e-01
50 24 -9.78102657006806320e-02
51 24 -3.23285566375514158e-02
52 24 -1.31916651854463183e-16
53 24 3.23285566375511521e-02
54 24 9.78102657006804377e-02
55 24 1.64511091758941880e-01
56 24 2.31524421035603917e-01
57 24 2.97830292083523684e-01
58 24 3.62334264106690673e-01
59 24 4.23917840072187746e-01
60 24 4.81496501914971009e-01
61 24 5.34079680460339046e-01
62 24 5.80826088230555593e-01
63 24 6.21088112297553896e-01
64 24 6.54440424568278334e-01
65 24 6.80690314266548913e-01
66 24 6.99869935689670708e-01
67 24 7.12213085943713686e-01
68 24 7.18120805369127702e-01
69 24 7.18120805369127480e-01
1 25 6.41025641025640969e-01
2 25 6.41025641025641302e-01
3 25 6.35752155557233189e-01
4 25 6.24734126634081677e-01
5 25 6.07613568330432563e-01
6 25 5.84181783253495790e-01
7 25 5.54410069088997703e-01
8 25 5.18470447797464762e-01
9 25 4.76742585601428959e-01
10 25 4.29804569765939892e-01
11 25 3.78407369822405804e-01
12 25 3.23435210591282662e-01
13 25 2.65856179729481223e-01
14 25 2.06668695987928225e-01
15 25 1.46849704481681942e-01
16 25 8.73096668428073458e-02
17 25 2.88578656781400995e-02
18 25 3.92514999726715759e-17
19 25 -2.88578656781400406e-02
20 25 -8.73096668428072903e-02
21 25 -1.46849704481681942e-01
22 25 -2.06668695987928253e-01
23 25 -2.65856179729481334e-01
24 25 -3.23435210591282718e-01
25 25 -3.78407369822405748e-01
26 25 -4.29804569765939892e-01
27 25 -4.76742585601428959e-01
28 25 -5.18470447797464540e-01
29 25 -5.54410069088997925e-01
30 25 -5.84181783253495568e-01
31 25 -6.07613568330432452e-01
32 25 -6.24734126634081788e-01
33 25 -6.35752155557233078e-01
34 25 -6.41025641025641302e-01
35 25 -6.41025641025640969e-01
36 25 -6.41025641025641302e-01
37 25 -6.35752155557233189e-01
38 25 -6.24734126634081677e-01
39 25 -6.07613568330432563e-01
40 25 -5.84181783253495790e-01
41 25 -5.54410069088997703e-01
42 25 -5.18470447797464762e-01
43 25 -4.76742585601428959e-01
44 25 -4.29804569765939892e-01
45 25 -3.78407369822405804e-01
46 25 -3.23435210591282774e-01
47 25 -2.65856179729481279e-01
48 25 -2.06668695987928364e-01
49 25 -1.46849704481682025e-01
50 25 -8.73096668428074152e-02
51 25 -2.88578656781401932e-02
52 25 -1.17754499918014715e-16
53 25 2.88578656781399642e-02
54 25 8.73096668428072487e-02
55 25 1.46849704481681886e-01
56 25 2.06668695987928253e-01
57 25 2.65856179729481334e-01
58 25 3.23435210591282718e-01
59 25 3.78407369822405748e-01
60 25 4.29804569765939892e-01
61 25 4.76742585601428959e-01
62 25 5.18470447797464540e-01
63 25 5.54410069088997925e-01
64 25 5.84181783253495568e-01
65 25 6.07613568330432452e-01
66 25 6.24734126634081788e-01
67 25 6.35752155557233078e-01
68 25 6.41025641025641302e-01
69 25 6.41025641025640969e-01
1 26 5.60975609756097504e-01
2 26 5.60975609756097726e-01
3 26 5.56360666863256803e-01
4 26 5.46718547893435436e-01
5 26 5.31735971504778471e-01
6 26 5.11230302027693373e-01
7 26 4.85176421436908256e-01
8 26 4.53724869926171503e-01
9 26 4.17207901740957898e-01
10 26 3.76131413736632336e-01
11 26 3.31152595834827312e-01
12 26 2.83045252585737095e-01
13 26 2.32656578748628967e-01
14 26 1.80860312488947933e-01
15 26 1.28511399922018238e-01
16 26 7.64066060078031212e-02
17 26 2.52541517202845602e-02
18 26 3.43498492443769808e-17
19 26 -2.52541517202845012e-02
20 26 -7.64066060078030657e-02
21 26 -1.28511399922018238e-01
22 26 -1.80860312488947961e-01
23 26 -2.32656578748629023e-01
24 26 -2.83045252585737150e-01
25 26 -3.31152595834827257e-01
26 26 -3.76131413736632336e-01
27 26 -4.17207901740957898e-01
28 26 -4.53724869926171392e-01
29 26 -4.85176421436908367e-01
30 26 -5.11230302027693262e-01
31 26 -5.31735971504778582e-01
32 26 -5.46718547893435436e-01
33 26 -5.56360666863256692e-01
34 26 -5.60975609756097726e-01
35 26 -5.60975609756097504e-01
36 26 -5.60975609756097726e-01
37 26 -5.56360666863256803e-01
38 26 -5.46718547893435436e-01
39 26 -5.31735971504778471e-01
40 26 -5.11230302027693373e-01
41 26 -4.85176421436908256e-01
42 26 -4.53724869926171503e-01
43 26 -4.17207901740957898e-01
44 26 -3.76131413736632336e-01
45 26 -3.31152595834827312e-01
46 26 -2.83045252585737206e-01
47 26 -2.32656578748629023e-01
48 26 -1.80860312488948072e-01
49 26 -1.28511399922018321e-01
50 26 -7.64066060078031628e-02
51 26 -2.52541517202846330e-02
52 26 -1.03049547733130930e-16
53 26 2.52541517202844387e-02
54 26 7.64066060078030379e-02
55 26 1.28511399922018210e-01
56 26 1.80860312488947961e-01
57 26 2.32656578748629023e-01
58 26 2.83045252585737150e-01
59 26 3.31152595834827257e-01
60 26 3.76131413736632336e-01
61 26 4.17207901740957898e-01
62 26 4.53724869926171392e-01
63 26 4.85176421436908367e-01
64 26 5.11230302027693262e-01
65 26 5.31735971504778582e-01
66 26 5.46718547893435436e-01
67 26 5.56360666863256692e-01
68 26 5.60975609756097726e-01
69 26 5.60975609756097504e-01
1 27 4.79768786127167557e-01
2 27 4.79768786127167668e-01
3 27 4.75821902321101498e-01
4 27 4.67575576396421388e-01
5 27 4.54761877615169896e-01
6 27 4.37224608645448709e-01
7 27 4.14942287547071798e-01
8 27 3.88043662316853943e-01
9 27 3.56812890079034828e-01
10 27 3.21682634065282635e-01
11 27 2.83214949390780957e-01
12 27 2.42071624666816643e-01
13 27 1.98977214747822179e-01
14 27 1.54678975471196217e-01
15 27 1.09908090961203325e-01
16 27 6.53459864902121157e-02
17 27 2.15983609711305237e-02
18 27 2.93773654130723474e-17
19 27 -2.15983609711304717e-02
20 27 -6.53459864902120602e-02
21 27 -1.09908090961203325e-01
22 27 -1.54678975471196273e-01
23 27 -1.98977214747822206e-01
24 27 -2.42071624666816670e-01
25 27 -2.83214949390780901e-01
26 27 -3.21682634065282635e-01
27 27 -3.56812890079034828e-01
28 27 -3.88043662316853832e-01
29 27 -4.14942287547071909e-01
30 27 -4.37224608645448654e-01
31 27 -4.54761877615169896e-01
32 27 -4.67575576396421388e-01
33 27 -4.75821902321101442e-01
34 27 -4.79768786127167668e-01
35 27 -4.79768786127167557e-01
36 27 -4.79768786127167668e-01
37 27 -4.75821902321101498e-01
38 27 -4.67575576396421388e-01
39 27 -4.54761877615169896e-01
40 27 -4.37224608645448709e-01
41 27 -4.14942287547071798e-01
42 27 -3.88043662316853943e-01
43 27 -3.56812890079034828e-01
44 27 -3.21682634065282635e-01
45 27 -2.83214949390780957e-01
46 27 -2.42071624666816726e-01
47 27 -1.98977214747822206e-01
48 27 -1.54678975471196328e-01
49 27 -1.09908090961203408e-01
50 27 -6.53459864902121573e-02
51 27 -2.15983609711305827e-02
52 27 -8.81320962392170051e-17
53 27 2.15983609711304196e-02
54 27 6.53459864902120463e-02
55 27 1.09908090961203297e-01
56 27 1.54678975471196273e-01
57 27 1.98977214747822206e-01
58 27 2.42071624666816670e-01
59 27 2.83214949390780901e-01
60 27 3.21682634065282635e-01
61 27 3.56812890079034828e-01
62 27 3.88043662316853832e-01
63 27 4.14942287547071909e-01
64 27 4.37224608645448654e-01
65 27 4.54761877615169896e-01
66 27 4.67575576396421388e-01
67 27 4.75821902321101442e-01
68 27 4.79768786127167668e-01
69 27 4.79768786127167557e-01
1 28 3.98907103825136555e-01
2 28 3.98907103825136611e-01
3 28 3.95625439753320818e-01
4 28 3.88768974541471135e-01
5 28 3.78114935308577260e-01
6 28 3.63533450693486804e-01
7 28 3.45006659387186165e-01
8 28 3.22641609809700969e-01
9 28 2.96674566384102334e-01
10 28 2.67465269972378350e-01
11 28 2.35481045220631569e-01
12 28 2.01272140885985107e-01
13 28 1.65440993156247690e-01
14 28 1.28608913109864859e-01
15 28 9.13838488872892735e-02
16 28 5.43323762844748689e-02
17 28 1.79581078875770267e-02
18 28 2.44260153928297179e-17
19 28 -1.79581078875769781e-02
20 28 -5.43323762844748273e-02
21 28 -9.13838488872892735e-02
22 28 -1.28608913109864886e-01
23 28 -1.65440993156247718e-01
24 28 -2.01272140885985107e-01
25 28 -2.35481045220631513e-01
26 28 -2.67465269972378294e-01
27 28 -2.96674566384102334e-01
28 28 -3.22641609809700969e-01
29 28 -3.45006659387186221e-01
30 28 -3.63533450693486748e-01
31 28 -3.78114935308577316e-01
32 28 -3.88768974541471191e-01
33 28 -3.95625439753320873e-01
34 28 -3.98907103825136611e-01
35 28 -3.98907103825136555e-01
36 28 -3.98907103825136611e-01
37 28 -3.95625439753320818e-01
38 28 -3.88768974541471135e-01
39 28 -3.78114935308577260e-01
40 28 -3.63533450693486804e-01
41 28 -3.45006659387186165e-01
42 28 -3.22641609809700969e-01
43 28 -2.96674566384102334e-01
44 28 -2.67465269972378350e-01
45 28 -2.35481045220631596e-01
46 28 -2.01272140885985162e-01
47 28 -1.65440993156247718e-01
48 28 -1.28608913109864914e-01
49 28 -9.13838488872893429e-02
50 28 -5.43323762844749106e-02
51 28 -1.79581078875770718e-02
52 28 -7.32780461784891538e-17
53 28 1.79581078875769365e-02
54 28 5.43323762844748065e-02
55 28 9.13838488872892596e-02
56 28 1.28608913109864886e-01
57 28 1.65440993156247718e-01
58 28 2.01272140885985107e-01
59 28 2.35481045220631513e-01
60 28 2.67465269972378294e-01
61 28 2.96674566384102334e-01
62 28 3.22641609809700969e-01
63 28 3.45006659387186221e-01
64 28 3.63533450693486748e-01
65 28 3.78114935308577316e-01
66 28 3.88768974541471191e-01
67 28 3.95625439753320873e-01
68 28 3.98907103825136611e-01
69 28 3.98907103825136555e-01
1 29 3.19587628865979356e-01
2 29 3.19587628865979412e-01
3 29 3.16958497347915424e-01
4 29 3.11465385196125710e-01
5 29 3.02929816128450602e-01
6 29 2.91247742661227327e-01
7 29 2.76404855063339561e-01
8 29 2.58486916035931824e-01
9 29 2.37683210718403093e-01
10 29 2.14281948390524252e-01
11 29 1.88657529944448926e-01
12 29 1.61250791589633319e-01
13 29 1.32544379914615623e-01
14 29 1.03036063278105244e-01
15 29 7.32129042137540098e-02
16 29 4.35288194692594194e-02
17 29 1.43872823112871726e-02
18 29 1.95690983368906912e-17
19 29 -1.43872823112871327e-02
20 29 -4.35288194692593847e-02
21 29 -7.32129042137540098e-02
22 29 -1.03036063278105258e-01
23 29 -1.32544379914615623e-01
24 29 -1.61250791589633319e-01
25 29 -1.88657529944448871e-01
26 29 -2.14281948390524196e-01
27 29 -2.37683210718403093e-01
28 29 -2.58486916035931880e-01
29 29 -2.76404855063339561e-01
30 29 -2.91247742661227271e-01
31 29 -3.02929816128450657e-01
32 29 -3.11465385196125766e-01
33 29 -3.16958497347915424e-01
34 29 -3.19587628865979412e-01
35 29 -3.19587628865979356e-01
36 29 -3.19587628865979412e-01
37 29 -3.16958497347915424e-01
38 29 -3.11465385196125710e-01
39 29 -3.02929816128450602e-01
40 29 -2.91247742661227327e-01
41 29 -2.76404855063339561e-01
42 29 -2.58486916035931824e-01
43 29 -2.37683210718403093e-01
44 29 -2.14281948390524252e-01
45 29 -1.88657529944448982e-01
46 29 -1.61250791589633374e-01
47 29 -1.32544379914615651e-01
48 29 -1.03036063278105300e-01
49 29 -7.32129042137540653e-02
50 29 -4.35288194692594541e-02
51 29 -1.43872823112872073e-02
52 29 -5.87072950106720829e-17
53 29 1.43872823112870998e-02
54 29 4.35288194692593708e-02
55 29 7.32129042137539959e-02
56 29 1.03036063278105258e-01
57 29 1.32544379914615623e-01
58 29 1.61250791589633319e-01
59 29 1.88657529944448871e-01
60 29 2.14281948390524196e-01
61 29 2.37683210718403093e-01
62 29 2.58486916035931880e-01
63 29 2.76404855063339561e-01
64 29 2.91247742661227271e-01
65 29 3.02929816128450657e-01
66 29 3.11465385196125766e-01
67 29 3.16958497347915424e-01
68 29 3.19587628865979412e-01
69 29 3.19587628865979356e-01
1 30 2.42718446601941751e-01
2 30 2.42718446601941751e-01
3 30 2.40721689968272756e-01
4 30 2.36549814939118336e-01
5 30 2.30067273445503512e-01
6 30 2.21195044144527508e-01
7 30 2.09922259169620568e-01
8 30 1.96314053049525372e-01
9 30 1.80514182897628411e-01
10 30 1.62741536124967501e-01
11 30 1.43280460418192479e-01
12 30 1.22465759350097333e-01
13 30 1.00663990383007468e-01
14 30 7.82531955682446712e-02
15 30 5.56032861629669542e-02
16 30 3.30590000666940442e-02
17 30 1.09267646742472260e-02
18 30 1.48622184362542846e-17
19 30 -1.09267646742471948e-02
20 30 -3.30590000666940165e-02
21 30 -5.56032861629669403e-02
22 30 -7.82531955682446712e-02
23 30 -1.00663990383007468e-01
24 30 -1.22465759350097333e-01
25 30 -1.43280460418192424e-01
26 30 -1.62741536124967445e-01
27 30 -1.80514182897628411e-01
28 30 -1.96314053049525428e-01
29 30 -2.09922259169620540e-01
30 30 -2.21195044144527453e-01
31 30 -2.30067273445503540e-01
32 30 -2.36549814939118391e-01
33 30 -2.40721689968272756e-01
34 30 -2.42718446601941751e-01
35 30 -2.42718446601941751e-01
36 30 -2.42718446601941751e-01
37 30 -2.40721689968272756e-01
38 30 -2.36549814939118336e-01
39 30 -2.30067273445503512e-01
40 30 -2.21195044144527508e-01
41 30 -2.09922259169620568e-01
42 30 -1.96314053049525372e-01
43 30 -1.80514182897628411e-01
44 30 -1.62741536124967501e-01
45 30 -1.43280460418192535e-01
46 30 -1.22465759350097375e-01
47 30 -1.00663990383007496e-01
48 30 -7.82531955682446989e-02
49 30 -5.56032861629669958e-02
50 30 -3.30590000666940720e-02
51 30 -1.09267646742472520e-02
52 30 -4.45866553087628567e-17
53 30 1.09267646742471705e-02
54 30 3.30590000666940026e-02
55 30 5.56032861629669334e-02
56 30 7.82531955682446712e-02
57 30 1.00663990383007468e-01
58 30 1.22465759350097333e-01
59 30 1.43280460418192424e-01
60 30 1.62741536124967445e-01
61 30 1.80514182897628411e-01
62 30 1.96314053049525428e-01
63 30 2.09922259169620540e-01
64 30 2.21195044144527453e-01
65 30 2.30067273445503540e-01
66 30 2.36549814939118391e-01
67 30 2.40721689968272756e-01
68 30 2.42718446601941751e-01
69 30 2.42718446601941751e-01
1 31 1.68949771689497708e-01
2 31 1.68949771689497708e-01
3 31 1.67559883190700892e-01
4 31 1.64655953375886760e-01
5 31 1.60143630885993399e-01
6 31 1.53967911093113113e-01
7 31 1.46121229168113959e-01
8 31 1.36648923501687891e-01
9 31 1.25651059547554678e-01
10 31 1.13279998935570989e-01
11 31 9.97336684299053033e-02
12 31 8.52451157777572577e-02
13 31 7.00694917533591782e-02
14 31 5.44699412439416317e-02
15 31 3.87039495099665912e-02
16 31 2.30114793158303181e-02
17 31 7.60582651571802253e-03
18 31 1.03451898558109743e-17
19 31 -7.60582651571800172e-03
20 31 -2.30114793158303008e-02
21 31 -3.87039495099665773e-02
22 31 -5.44699412439416317e-02
23 31 -7.00694917533591782e-02
24 31 -8.52451157777572438e-02
25 31 -9.97336684299052756e-02
26 31 -1.13279998935570961e-01
27 31 -1.25651059547554678e-01
28 31 -1.36648923501687947e-01
29 31 -1.46121229168113959e-01
30 31 -1.53967911093113086e-01
31 31 -1.60143630885993399e-01
32 31 -1.64655953375886815e-01
33 31 -1.67559883190700920e-01
34 31 -1.68949771689497708e-01
35 31 -1.68949771689497708e-01
36 31 -1.68949771689497708e-01
37 31 -1.67559883190700892e-01
38 31 -1.64655953375886760e-01
39 31 -1.60143630885993399e-01
40 31 -1.53967911093113113e-01
41 31 -1.46121229168113959e-01
42 31 -1.36648923501687891e-01
43 31 -1.25651059547554678e-01
44 31 -1.13279998935570989e-01
45 31 -9.97336684299053311e-02
46 31 -8.52451157777572854e-02
47 31 -7.00694917533591921e-02
48 31 -5.44699412439416525e-02
49 31 -3.87039495099666189e-02
50 31 -2.30114793158303389e-02
51 31 -7.60582651571804248e-03
52 31 -3.10355695674329212e-17
53 31 7.60582651571798524e-03
54 31 2.30114793158302938e-02
55 31 3.87039495099665704e-02
56 31 5.44699412439416317e-02
57 31 7.00694917533591782e-02
58 31 8.52451157777572438e-02
59 31 9.97336684299052756e-02
60 31 1.13279998935570961e-01
61 31 1.25651059547554678e-01
62 31 1.36648923501687947e-01
63 31 1.46121229168113959e-01
64 31 1.53967911093113086e-01
65 31 1.60143630885993399e-01
66 31 1.64655953375886815e-01
67 31 1.67559883190700920e-01
68 31 1.68949771689497708e-01
69 31 1.68949771689497708e-01
1 32 9.87124463519313267e-02
2 32 9.87124463519313267e-02
3 32 9.79003748557661924e-02
4 32 9.62036929769564814e-02
5 32 9.35672739557764505e-02
6 32 8.99589801851305715e-02
7 32 8.53743917549924652e-02
8 32 7.98399985706996912e-02
9 32 7.34142659715848467e-02
10 32 6.61862144343430131e-02
11 32 5.82714868207206763e-02
12 32 4.98062461631554598e-02
13 32 4.09395696510462953e-02
14 32 3.18252052019178736e-02
15 32 2.26135939776942012e-02
16 32 1.34449392545919633e-02
17 32 4.44386360743204752e-03
18 32 6.04439407304487656e-18
19 32 -4.44386360743203538e-03
20 32 -1.34449392545919547e-02
21 32 -2.26135939776941942e-02
22 32 -3.18252052019178736e-02
23 32 -4.09395696510463022e-02
24 32 -4.98062461631554668e-02
25 32 -5.82714868207206763e-02
26 32 -6.61862144343429853e-02
27 32 -7.34142659715848467e-02
28 32 -7.98399985706997051e-02
29 32 -8.53743917549924652e-02
30 32 -8.99589801851305715e-02
31 32 -9.35672739557764366e-02
32 32 -9.62036929769564952e-02
33 32 -9.79003748557662062e-02
34 32 -9.87124463519313267e-02
35 32 -9.87124463519313267e-02
36 32 -9.87124463519313267e-02
37 32 -9.79003748557661924e-02
38 32 -9.62036929769564814e-02
39 32 -9.35672739557764505e-02
40 32 -8.99589801851305715e-02
41 32 -8.53743917549924652e-02
42 32 -7.98399985706996912e-02
43 32 -7.34142659715848467e-02
44 32 -6.61862144343430131e-02
45 32 -5.82714868207206901e-02
46 32 -4.98062461631554876e-02
47 32 -4.09395696510463161e-02
48 32 -3.18252052019178874e-02
49 32 -2.26135939776942185e-02
50 32 -1.34449392545919772e-02
51 32 -4.44386360743205880e-03
52 32 -1.81331822191346274e-17
53 32 4.44386360743202584e-03
54 32 1.34449392545919495e-02
55 32 2.26135939776941908e-02
56 32 3.18252052019178736e-02
57 32 4.09395696510463022e-02
58 32 4.98062461631554668e-02
59 32 5.82714868207206763e-02
60 32 6.61862144343429853e-02
61 32 7.34142659715848467e-02
62 32 7.98399985706997051e-02
63 32 8.53743917549924652e-02
64 32 8.99589801851305715e-02
65 32 9.35672739557764366e-02
66 32 9.62036929769564952e-02
67 32 9.79003748557662062e-02
68 32 9.87124463519313267e-02
69 32 9.87124463519313267e-02
1 33 3.22580645161290314e-02
2 33 3.22580645161290314e-02
3 33 3.19926891183639900e-02
4 33 3.14382334693279961e-02
5 33 3.05766827934024037e-02
6 33 2.93975348992081692e-02
7 33 2.78993454122205380e-02
8 33 2.60907709214207931e-02
9 33 2.39909172109106159e-02
10 33 2.16288751237053573e-02
11 33 1.90424353846113843e-02
12 33 1.62760944684645498e-02
13 33 1.33785690444513140e-02
14 33 1.04001021206828383e-02
15 33 7.38985609649754367e-03
16 33 4.39364775079933729e-03
17 33 1.45220227283543728e-03
18 33 1.97523677281831154e-18
19 33 -1.45220227283543381e-03
20 33 -4.39364775079933469e-03
21 33 -7.38985609649754193e-03
22 33 -1.04001021206828401e-02
23 33 -1.33785690444513140e-02
24 33 -1.62760944684645463e-02
25 33 -1.90424353846113843e-02
26 33 -2.16288751237053538e-02
27 33 -2.39909172109106159e-02
28 33 -2.60907709214208000e-02
29 33 -2.78993454122205380e-02
30 33 -2.93975348992081657e-02
31 33 -3.05766827934024002e-02
32 33 -3.14382334693279961e-02
33 33 -3.19926891183639900e-02
34 33 -3.22580645161290314e-02
35 33 -3.22580645161290314e-02
36 33 -3.22580645161290314e-02
37 33 -3.19926891183639900e-02
38 33 -3.14382334693279961e-02
39 33 -3.05766827934024037e-02
40 33 -2.93975348992081692e-02
41 33 -2.78993454122205380e-02
42 33 -2.60907709214207931e-02
43 33 -2.39909172109106159e-02
44 33 -2.16288751237053573e-02
45 33 -1.90424353846113878e-02
46 33 -1.62760944684645567e-02
47 33 -1.33785690444513210e-02
48 33 -1.04001021206828435e-02
49 33 -7.38985609649754887e-03
50 33 -4.39364775079934163e-03
51 33 -1.45220227283544140e-03
52 33 -5.92571031845493423e-18
53 33 1.45220227283543077e-03
54 33 4.39364775079933295e-03
55 33 7.38985609649754106e-03
56 33 1.04001021206828401e-02
57 33 1.33785690444513140e-02
58 33 1.62760944684645463e-02
59 33 1.90424353846113843e-02
60 33 2.16288751237053538e-02
61 33 2.39909172109106159e-02
62 33 2.60907709214208000e-02
63 33 2.78993454122205380e-02
64 33 2.93975348992081657e-02
65 33 3.05766827934024002e-02
66 33 3.14382334693279961e-02
67 33 3.19926891183639900e-02
68 33 3.22580645161290314e-02
69 33 3.22580645161290314e-02
1 34 0.00000000000000000e+00
2 34 0.00000000000000000e+00
3 34 0.00000000000000000e+00
4 34 0.00000000000000000e+00
5 34 0.00000000000000000e+00
6 34 0.00000000000000000e+00
7 34 0.00000000000000000e+00
8 34 0.00000000000000000e+00
9 34 0.00000000000000000e+00
10 34 0.00000000000000000e+00
11 34 0.00000000000000000e+00
12 34 0.00000000000000000e+00
13 34 0.00000000000000000e+00
14 34 0.00000000000000000e+00
15 34 0.00000000000000000e+00
16 34 0.00000000000000000e+00
17 34 0.00000000000000000e+00
18 34 0.00000000000000000e+00
19 34 0.00000000000000000e+00
20 34 0.00000000000000000e+00
21 34 0.00000000000000000e+00
22 34 0.00000000000000000e+00
23 34 0.00000000000000000e+00
24 34 0.00000000000000000e+00
25 34 0.00000000000000000e+00
26 34 0.00000000000000000e+00
27 34 0.00000000000000000e+00
28 34 0.00000000000000000e+00
29 34 0.00000000000000000e+00
30 34 0.00000000000000000e+00
31 34 0.00000000000000000e+00
32 34 0.00000000000000000e+00
33 34 0.00000000000000000e+00
34 34 0.00000000000000000e+00
35 34 0.00000000000000000e+00
36 34 0.00000000000000000e+00
37 34 0.00000000000000000e+00
38 34 0.00000000000000000e+00
39 34 0.00000000000000000e+00
40 34 0.00000000000000000e+00
41 34 0.00000000000000000e+00
42 34 0.00000000000000000e+00
43 34 0.00000000000000000e+00
44 34 0.00000000000000000e+00
45 34 0.00000000000000000e+00
46 34 0.00000000000000000e+00
47 34 0.00000000000000000e+00
48 34 0.00000000000000000e+00
49 34 0.00000000000000000e+00
50 34 0.00000000000000000e+00
51 34 0.00000000000000000e+00
52 34 0.00000000000000000e+00
53 34 0.00000000000000000e+00
54 34 0.00000000000000000e+00
55 34 0.00000000000000000e+00
56 34 0.00000000000000000e+00
57 34 0.00000000000000000e+00
58 34 0.00000000000000000e+00
59 34 0.00000000000000000e+00
60 34 0.00000000000000000e+00
61 34 0.00000000000000000e+00
62 34 0.00000000000000000e+00
63 34 0.00000000000000000e+00
64 34 0.00000000000000000e+00
65 34 0.00000000000000000e+00
66 34 0.00000000000000000e+00
67 34 0.00000000000000000e+00
68 34 0.00000000000000000e+00
69 34 0.00000000000000000e+00
