%%MatrixMarket matrix coordinate  real general
69 34 2346
1 1 1.00000000000000000e+00
2 1 1.00000000000000000e+00
3 1 1.00000000000000000e+00
4 1 1.00000000000000000e+00
5 1 1.00000000000000000e+00
6 1 1.00000000000000000e+00
7 1 1.00000000000000000e+00
8 1 1.00000000000000000e+00
9 1 1.00000000000000000e+00
10 1 1.00000000000000000e+00
11 1 1.00000000000000000e+00
12 1 1.00000000000000000e+00
13 1 1.00000000000000000e+00
14 1 1.00000000000000000e+00
15 1 1.00000000000000000e+00
16 1 1.00000000000000000e+00
17 1 1.00000000000000000e+00
18 1 1.00000000000000000e+00
19 1 1.00000000000000000e+00
20 1 1.00000000000000000e+00
21 1 1.00000000000000000e+00
22 1 1.00000000000000000e+00
23 1 1.00000000000000000e+00
24 1 1.00000000000000000e+00
25 1 1.00000000000000000e+00
26 1 1.00000000000000000e+00
27 1 1.00000000000000000e+00
28 1 1.00000000000000000e+00
29 1 1.00000000000000000e+00
30 1 1.00000000000000000e+00
31 1 1.00000000000000000e+00
32 1 1.00000000000000000e+00
33 1 1.00000000000000000e+00
34 1 1.00000000000000000e+00
35 1 1.00000000000000000e+00
36 1 1.00000000000000000e+00
37 1 1.00000000000000000e+00
38 1 1.00000000000000000e+00
39 1 1.00000000000000000e+00
40 1 1.00000000000000000e+00
41 1 1.00000000000000000e+00
42 1 1.00000000000000000e+00
43 1 1.00000000000000000e+00
44 1 1.00000000000000000e+00
45 1 1.00000000000000000e+00
46 1 1.00000000000000000e+00
47 1 1.00000000000000000e+00
48 1 1.00000000000000000e+00
49 1 1.00000000000000000e+00
50 1 1.00000000000000000e+00
51 1 1.00000000000000000e+00
52 1 1.00000000000000000e+00
53 1 1.00000000000000000e+00
54 1 1.00000000000000000e+00
55 1 1.00000000000000000e+00
56 1 1.00000000000000000e+00
57 1 1.00000000000000000e+00
58 1 1.00000000000000000e+00
59 1 1.00000000000000000e+00
60 1 1.00000000000000000e+00
61 1 1.00000000000000000e+00
62 1 1.00000000000000000e+00
63 1 1.00000000000000000e+00
64 1 1.00000000000000000e+00
65 1 1.00000000000000000e+00
66 1 1.00000000000000000e+00
67 1 1.00000000000000000e+00
68 1 1.00000000000000000e+00
69 1 1.00000000000000000e+00
1 2 1.00000000000000000e+00
2 2 1.00000000000000000e+00
3 2 1.00000000000000000e+00
4 2 1.00000000000000000e+00
5 2 1.00000000000000000e+00
6 2 1.00000000000000000e+00
7 2 1.00000000000000000e+00
8 2 1.00000000000000000e+00
9 2 1.00000000000000000e+00
10 2 1.00000000000000000e+00
11 2 1.00000000000000000e+00
12 2 1.00000000000000000e+00
13 2 1.00000000000000000e+00
14 2 1.00000000000000000e+00
15 2 1.00000000000000000e+00
16 2 1.00000000000000000e+00
17 2 1.00000000000000000e+00
18 2 1.00000000000000000e+00
19 2 1.00000000000000000e+00
20 2 1.00000000000000000e+00
21 2 1.00000000000000000e+00
22 2 1.00000000000000000e+00
23 2 1.00000000000000000e+00
24 2 1.00000000000000000e+00
25 2 1.00000000000000000e+00
26 2 1.00000000000000000e+00
27 2 1.00000000000000000e+00
28 2 1.00000000000000000e+00
29 2 1.00000000000000000e+00
30 2 1.00000000000000000e+00
31 2 1.00000000000000000e+00
32 2 1.00000000000000000e+00
33 2 1.00000000000000000e+00
34 2 1.00000000000000000e+00
35 2 1.00000000000000000e+00
36 2 1.00000000000000000e+00
37 2 1.00000000000000000e+00
38 2 1.00000000000000000e+00
39 2 1.00000000000000000e+00
40 2 1.00000000000000000e+00
41 2 1.00000000000000000e+00
42 2 1.00000000000000000e+00
43 2 1.00000000000000000e+00
44 2 1.00000000000000000e+00
45 2 1.00000000000000000e+00
46 2 1.00000000000000000e+00
47 2 1.00000000000000000e+00
48 2 1.00000000000000000e+00
49 2 1.00000000000000000e+00
50 2 1.00000000000000000e+00
51 2 1.00000000000000000e+00
52 2 1.00000000000000000e+00
53 2 1.00000000000000000e+00
54 2 1.00000000000000000e+00
55 2 1.00000000000000000e+00
56 2 1.00000000000000000e+00
57 2 1.00000000000000000e+00
58 2 1.00000000000000000e+00
59 2 1.00000000000000000e+00
60 2 1.00000000000000000e+00
61 2 1.00000000000000000e+00
62 2 1.00000000000000000e+00
63 2 1.00000000000000000e+00
64 2 1.00000000000000000e+00
65 2 1.00000000000000000e+00
66 2 1.00000000000000000e+00
67 2 1.00000000000000000e+00
68 2 1.00000000000000000e+00
69 2 1.00000000000000000e+00
1 3 9.95708154506437793e-01
2 3 9.95708154506437904e-01
3 3 9.95708154506437793e-01
4 3 9.95708154506437793e-01
5 3 9.95708154506437682e-01
6 3 9.95708154506437793e-01
7 3 9.95708154506437793e-01
8 3 9.95708154506437793e-01
9 3 9.95708154506437904e-01
10 3 9.95708154506437904e-01
11 3 9.95708154506437793e-01
12 3 9.95708154506437793e-01
13 3 9.95708154506437793e-01
14 3 9.95708154506437682e-01
15 3 9.95708154506437793e-01
16 3 9.95708154506437793e-01
17 3 9.95708154506437904e-01
18 3 9.95708154506437793e-01
19 3 9.95708154506437904e-01
20 3 9.95708154506437793e-01
21 3 9.95708154506437793e-01
22 3 9.95708154506437682e-01
23 3 9.95708154506437793e-01
24 3 9.95708154506437793e-01
25 3 9.95708154506437793e-01
26 3 9.95708154506437904e-01
27 3 9.95708154506437904e-01
28 3 9.95708154506437793e-01
29 3 9.95708154506437793e-01
30 3 9.95708154506437793e-01
31 3 9.95708154506437682e-01
32 3 9.95708154506437793e-01
33 3 9.95708154506437793e-01
34 3 9.95708154506437904e-01
35 3 9.95708154506437793e-01
36 3 9.95708154506437904e-01
37 3 9.95708154506437793e-01
38 3 9.95708154506437793e-01
39 3 9.95708154506437682e-01
40 3 9.95708154506437793e-01
41 3 9.95708154506437793e-01
42 3 9.95708154506437793e-01
43 3 9.95708154506437904e-01
44 3 9.95708154506437904e-01
45 3 9.95708154506437793e-01
46 3 9.95708154506437793e-01
47 3 9.95708154506437793e-01
48 3 9.95708154506437682e-01
49 3 9.95708154506437793e-01
50 3 9.95708154506437793e-01
51 3 9.95708154506437904e-01
52 3 9.95708154506437793e-01
53 3 9.95708154506437904e-01
54 3 9.95708154506437793e-01
55 3 9.95708154506437793e-01
56 3 9.95708154506437682e-01
57 3 9.95708154506437793e-01
58 3 9.95708154506437793e-01
59 3 9.95708154506437793e-01
60 3 9.95708154506437904e-01
61 3 9.95708154506437904e-01
62 3 9.95708154506437793e-01
63 3 9.95708154506437793e-01
64 3 9.95708154506437793e-01
65 3 9.95708154506437682e-01
66 3 9.95708154506437793e-01
67 3 9.95708154506437793e-01
68 3 9.95708154506437904e-01
69 3 9.95708154506437793e-01
1 4 9.86301369863013644e-01
2 4 9.86301369863013866e-01
3 4 9.86301369863013866e-01
4 4 9.86301369863013644e-01
5 4 9.86301369863013755e-01
6 4 9.86301369863013644e-01
7 4 9.86301369863013755e-01
8 4 9.86301369863013533e-01
9 4 9.86301369863013755e-01
10 4 9.86301369863013755e-01
11 4 9.86301369863013533e-01
12 4 9.86301369863013755e-01
13 4 9.86301369863013644e-01
14 4 9.86301369863013755e-01
15 4 9.86301369863013644e-01
16 4 9.86301369863013533e-01
17 4 9.86301369863013866e-01
18 4 9.86301369863013644e-01
19 4 9.86301369863013866e-01
20 4 9.86301369863013866e-01
21 4 9.86301369863013644e-01
22 4 9.86301369863013755e-01
23 4 9.86301369863013644e-01
24 4 9.86301369863013755e-01
25 4 9.86301369863013533e-01
26 4 9.86301369863013755e-01
27 4 9.86301369863013755e-01
28 4 9.86301369863013533e-01
29 4 9.86301369863013755e-01
30 4 9.86301369863013644e-01
31 4 9.86301369863013755e-01
32 4 9.86301369863013644e-01
33 4 9.86301369863013533e-01
34 4 9.86301369863013866e-01
35 4 9.86301369863013644e-01
36 4 9.86301369863013866e-01
37 4 9.86301369863013866e-01
38 4 9.86301369863013644e-01
39 4 9.86301369863013755e-01
40 4 9.86301369863013644e-01
41 4 9.86301369863013755e-01
42 4 9.86301369863013533e-01
43 4 9.86301369863013755e-01
44 4 9.86301369863013755e-01
45 4 9.86301369863013533e-01
46 4 9.86301369863013755e-01
47 4 9.86301369863013644e-01
48 4 9.86301369863013755e-01
49 4 9.86301369863013644e-01
50 4 9.86301369863013533e-01
51 4 9.86301369863013866e-01
52 4 9.86301369863013644e-01
53 4 9.86301369863013866e-01
54 4 9.86301369863013866e-01
55 4 9.86301369863013644e-01
56 4 9.86301369863013755e-01
57 4 9.86301369863013644e-01
58 4 9.86301369863013755e-01
59 4 9.86301369863013533e-01
60 4 9.86301369863013755e-01
61 4 9.86301369863013755e-01
62 4 9.86301369863013533e-01
63 4 9.86301369863013755e-01
64 4 9.86301369863013644e-01
65 4 9.86301369863013755e-01
66 4 9.86301369863013644e-01
67 4 9.86301369863013533e-01
68 4 9.86301369863013866e-01
69 4 9.86301369863013644e-01
1 5 9.70873786407767003e-01
2 5 9.70873786407767003e-01
3 5 9.70873786407767114e-01
4 5 9.70873786407766892e-01
5 5 9.70873786407767003e-01
6 5 9.70873786407767003e-01
7 5 9.70873786407766892e-01
8 5 9.70873786407767003e-01
9 5 9.70873786407767225e-01
10 5 9.70873786407767225e-01
11 5 9.70873786407767003e-01
12 5 9.70873786407767114e-01
13 5 9.70873786407767114e-01
14 5 9.70873786407767003e-01
15 5 9.70873786407766892e-01
16 5 9.70873786407766892e-01
17 5 9.70873786407767003e-01
18 5 9.70873786407767003e-01
19 5 9.70873786407767003e-01
20 5 9.70873786407767114e-01
21 5 9.70873786407766892e-01
22 5 9.70873786407767003e-01
23 5 9.70873786407767003e-01
24 5 9.70873786407766892e-01
25 5 9.70873786407767003e-01
26 5 9.70873786407767225e-01
27 5 9.70873786407767225e-01
28 5 9.70873786407767003e-01
29 5 9.70873786407767114e-01
30 5 9.70873786407767114e-01
31 5 9.70873786407767003e-01
32 5 9.70873786407766892e-01
33 5 9.70873786407766892e-01
34 5 9.70873786407767003e-01
35 5 9.70873786407767003e-01
36 5 9.70873786407767003e-01
37 5 9.70873786407767114e-01
38 5 9.70873786407766892e-01
39 5 9.70873786407767003e-01
40 5 9.70873786407767003e-01
41 5 9.70873786407766892e-01
42 5 9.70873786407767003e-01
43 5 9.70873786407767225e-01
44 5 9.70873786407767225e-01
45 5 9.70873786407767003e-01
46 5 9.70873786407767114e-01
47 5 9.70873786407767114e-01
48 5 9.70873786407767003e-01
49 5 9.70873786407766892e-01
50 5 9.70873786407766892e-01
51 5 9.70873786407767003e-01
52 5 9.70873786407767003e-01
53 5 9.70873786407767003e-01
54 5 9.70873786407767114e-01
55 5 9.70873786407766892e-01
56 5 9.70873786407767003e-01
57 5 9.70873786407767003e-01
58 5 9.70873786407766892e-01
59 5 9.70873786407767003e-01
60 5 9.70873786407767225e-01
61 5 9.70873786407767225e-01
62 5 9.70873786407767003e-01
63 5 9.70873786407767114e-01
64 5 9.70873786407767114e-01
65 5 9.70873786407767003e-01
66 5 9.70873786407766892e-01
67 5 9.70873786407766892e-01
68 5 9.70873786407767003e-01
69 5 9.70873786407767003e-01
1 6 9.48453608247422641e-01
2 6 9.48453608247422641e-01
3 6 9.48453608247422753e-01
4 6 9.48453608247422530e-01
5 6 9.48453608247422641e-01
6 6 9.48453608247422641e-01
7 6 9.48453608247422530e-01
8 6 9.48453608247422641e-01
9 6 9.48453608247422864e-01
10 6 9.48453608247422864e-01
11 6 9.48453608247422641e-01
12 6 9.48453608247422864e-01
13 6 9.48453608247422864e-01
14 6 9.48453608247422641e-01
15 6 9.48453608247422641e-01
16 6 9.48453608247422753e-01
17 6 9.48453608247422641e-01
18 6 9.48453608247422641e-01
19 6 9.48453608247422641e-01
20 6 9.48453608247422753e-01
21 6 9.48453608247422530e-01
22 6 9.48453608247422641e-01
23 6 9.48453608247422641e-01
24 6 9.48453608247422530e-01
25 6 9.48453608247422641e-01
26 6 9.48453608247422864e-01
27 6 9.48453608247422864e-01
28 6 9.48453608247422641e-01
29 6 9.48453608247422864e-01
30 6 9.48453608247422864e-01
31 6 9.48453608247422641e-01
32 6 9.48453608247422641e-01
33 6 9.48453608247422753e-01
34 6 9.48453608247422641e-01
35 6 9.48453608247422641e-01
36 6 9.48453608247422641e-01
37 6 9.48453608247422753e-01
38 6 9.48453608247422530e-01
39 6 9.48453608247422641e-01
40 6 9.48453608247422641e-01
41 6 9.48453608247422530e-01
42 6 9.48453608247422641e-01
43 6 9.48453608247422864e-01
44 6 9.48453608247422864e-01
45 6 9.48453608247422641e-01
46 6 9.48453608247422864e-01
47 6 9.48453608247422864e-01
48 6 9.48453608247422641e-01
49 6 9.48453608247422641e-01
50 6 9.48453608247422753e-01
51 6 9.48453608247422641e-01
52 6 9.48453608247422641e-01
53 6 9.48453608247422641e-01
54 6 9.48453608247422753e-01
55 6 9.48453608247422530e-01
56 6 9.48453608247422641e-01
57 6 9.48453608247422641e-01
58 6 9.48453608247422530e-01
59 6 9.48453608247422641e-01
60 6 9.48453608247422864e-01
61 6 9.48453608247422864e-01
62 6 9.48453608247422641e-01
63 6 9.48453608247422864e-01
64 6 9.48453608247422864e-01
65 6 9.48453608247422641e-01
66 6 9.48453608247422641e-01
67 6 9.48453608247422753e-01
68 6 9.48453608247422641e-01
69 6 9.48453608247422641e-01
1 7 9.18032786885245922e-01
2 7 9.18032786885245922e-01
3 7 9.18032786885245922e-01
4 7 9.18032786885245811e-01
5 7 9.18032786885245922e-01
6 7 9.18032786885245811e-01
7 7 9.18032786885245811e-01
8 7 9.18032786885245811e-01
9 7 9.18032786885246144e-01
10 7 9.18032786885246144e-01
11 7 9.18032786885245811e-01
12 7 9.18032786885246033e-01
13 7 9.18032786885246144e-01
14 7 9.18032786885245811e-01
15 7 9.18032786885245811e-01
16 7 9.18032786885245922e-01
17 7 9.18032786885245922e-01
18 7 9.18032786885245922e-01
19 7 9.18032786885245922e-01
20 7 9.18032786885245922e-01
21 7 9.18032786885245811e-01
22 7 9.18032786885245922e-01
23 7 9.18032786885245811e-01
24 7 9.18032786885245811e-01
25 7 9.18032786885245811e-01
26 7 9.18032786885246144e-01
27 7 9.18032786885246144e-01
28 7 9.18032786885245811e-01
29 7 9.18032786885246033e-01
30 7 9.18032786885246144e-01
31 7 9.18032786885245811e-01
32 7 9.18032786885245811e-01
33 7 9.18032786885245922e-01
34 7 9.18032786885245922e-01
35 7 9.18032786885245922e-01
36 7 9.18032786885245922e-01
37 7 9.18032786885245922e-01
38 7 9.18032786885245811e-01
39 7 9.18032786885245922e-01
40 7 9.18032786885245811e-01
41 7 9.18032786885245811e-01
42 7 9.18032786885245811e-01
43 7 9.18032786885246144e-01
44 7 9.18032786885246144e-01
45 7 9.18032786885245811e-01
46 7 9.18032786885246033e-01
47 7 9.18032786885246144e-01
48 7 9.18032786885245811e-01
49 7 9.18032786885245811e-01
50 7 9.18032786885245922e-01
51 7 9.18032786885245922e-01
52 7 9.18032786885245922e-01
53 7 9.18032786885245922e-01
54 7 9.18032786885245922e-01
55 7 9.18032786885245811e-01
56 7 9.18032786885245922e-01
57 7 9.18032786885245811e-01
58 7 9.18032786885245811e-01
59 7 9.18032786885245811e-01
60 7 9.18032786885246144e-01
61 7 9.18032786885246144e-01
62 7 9.18032786885245811e-01
63 7 9.18032786885246033e-01
64 7 9.18032786885246144e-01
65 7 9.18032786885245811e-01
66 7 9.18032786885245811e-01
67 7 9.18032786885245922e-01
68 7 9.18032786885245922e-01
69 7 9.18032786885245922e-01
1 8 8.78612716763005785e-01
2 8 8.78612716763005897e-01
3 8 8.78612716763005785e-01
4 8 8.78612716763005674e-01
5 8 8.78612716763005897e-01
6 8 8.78612716763005785e-01
7 8 8.78612716763005785e-01
8 8 8.78612716763005785e-01
9 8 8.78612716763006008e-01
10 8 8.78612716763006008e-01
11 8 8.78612716763005785e-01
12 8 8.78612716763005785e-01
13 8 8.78612716763006008e-01
14 8 8.78612716763005785e-01
15 8 8.78612716763005674e-01
16 8 8.78612716763005785e-01
17 8 8.78612716763005897e-01
18 8 8.78612716763005785e-01
19 8 8.78612716763005897e-01
20 8 8.78612716763005785e-01
21 8 8.78612716763005674e-01
22 8 8.78612716763005897e-01
23 8 8.78612716763005785e-01
24 8 8.78612716763005785e-01
25 8 8.78612716763005785e-01
26 8 8.78612716763006008e-01
27 8 8.78612716763006008e-01
28 8 8.78612716763005785e-01
29 8 8.78612716763005785e-01
30 8 8.78612716763006008e-01
31 8 8.78612716763005785e-01
32 8 8.78612716763005674e-01
33 8 8.78612716763005785e-01
34 8 8.78612716763005897e-01
35 8 8.78612716763005785e-01
36 8 8.78612716763005897e-01
37 8 8.78612716763005785e-01
38 8 8.78612716763005674e-01
39 8 8.78612716763005897e-01
40 8 8.78612716763005785e-01
41 8 8.78612716763005785e-01
42 8 8.78612716763005785e-01
43 8 8.78612716763006008e-01
44 8 8.78612716763006008e-01
45 8 8.78612716763005785e-01
46 8 8.78612716763005785e-01
47 8 8.78612716763006008e-01
48 8 8.78612716763005785e-01
49 8 8.78612716763005674e-01
50 8 8.78612716763005785e-01
51 8 8.78612716763005897e-01
52 8 8.78612716763005785e-01
53 8 8.78612716763005897e-01
54 8 8.78612716763005785e-01
55 8 8.78612716763005674e-01
56 8 8.78612716763005897e-01
57 8 8.78612716763005785e-01
58 8 8.78612716763005785e-01
59 8 8.78612716763005785e-01
60 8 8.78612716763006008e-01
61 8 8.78612716763006008e-01
62 8 8.78612716763005785e-01
63 8 8.78612716763005785e-01
64 8 8.78612716763006008e-01
65 8 8.78612716763005785e-01
66 8 8.78612716763005674e-01
67 8 8.78612716763005785e-01
68 8 8.78612716763005897e-01
69 8 8.78612716763005785e-01
1 9 8.29268292682926789e-01
2 9 8.29268292682926789e-01
3 9 8.29268292682926789e-01
4 9 8.29268292682926789e-01
5 9 8.29268292682926789e-01
6 9 8.29268292682926900e-01
7 9 8.29268292682926789e-01
8 9 8.29268292682926678e-01
9 9 8.29268292682926900e-01
10 9 8.29268292682926900e-01
11 9 8.29268292682926678e-01
12 9 8.29268292682926789e-01
13 9 8.29268292682927011e-01
14 9 8.29268292682926789e-01
15 9 8.29268292682926789e-01
16 9 8.29268292682926789e-01
17 9 8.29268292682926789e-01
18 9 8.29268292682926789e-01
19 9 8.29268292682926789e-01
20 9 8.29268292682926789e-01
21 9 8.29268292682926789e-01
22 9 8.29268292682926789e-01
23 9 8.29268292682926900e-01
24 9 8.29268292682926789e-01
25 9 8.29268292682926678e-01
26 9 8.29268292682926900e-01
27 9 8.29268292682926900e-01
28 9 8.29268292682926678e-01
29 9 8.29268292682926789e-01
30 9 8.29268292682927011e-01
31 9 8.29268292682926789e-01
32 9 8.29268292682926789e-01
33 9 8.29268292682926789e-01
34 9 8.29268292682926789e-01
35 9 8.29268292682926789e-01
36 9 8.29268292682926789e-01
37 9 8.29268292682926789e-01
38 9 8.29268292682926789e-01
39 9 8.29268292682926789e-01
40 9 8.29268292682926900e-01
41 9 8.29268292682926789e-01
42 9 8.29268292682926678e-01
43 9 8.29268292682926900e-01
44 9 8.29268292682926900e-01
45 9 8.29268292682926678e-01
46 9 8.29268292682926789e-01
47 9 8.29268292682927011e-01
48 9 8.29268292682926789e-01
49 9 8.29268292682926789e-01
50 9 8.29268292682926789e-01
51 9 8.29268292682926789e-01
52 9 8.29268292682926789e-01
53 9 8.29268292682926789e-01
54 9 8.29268292682926789e-01
55 9 8.29268292682926789e-01
56 9 8.29268292682926789e-01
57 9 8.29268292682926900e-01
58 9 8.29268292682926789e-01
59 9 8.29268292682926678e-01
60 9 8.29268292682926900e-01
61 9 8.29268292682926900e-01
62 9 8.29268292682926678e-01
63 9 8.29268292682926789e-01
64 9 8.29268292682927011e-01
65 9 8.29268292682926789e-01
66 9 8.29268292682926789e-01
67 9 8.29268292682926789e-01
68 9 8.29268292682926789e-01
69 9 8.29268292682926789e-01
1 10 7.69230769230769273e-01
2 10 7.69230769230769051e-01
3 10 7.69230769230769273e-01
4 10 7.69230769230769162e-01
5 10 7.69230769230769162e-01
6 10 7.69230769230769162e-01
7 10 7.69230769230769273e-01
8 10 7.69230769230768940e-01
9 10 7.69230769230769273e-01
10 10 7.69230769230769273e-01
11 10 7.69230769230768940e-01
12 10 7.69230769230769162e-01
13 10 7.69230769230769384e-01
14 10 7.69230769230769162e-01
15 10 7.69230769230769273e-01
16 10 7.69230769230769162e-01
17 10 7.69230769230769051e-01
18 10 7.69230769230769273e-01
19 10 7.69230769230769051e-01
20 10 7.69230769230769273e-01
21 10 7.69230769230769162e-01
22 10 7.69230769230769162e-01
23 10 7.69230769230769162e-01
24 10 7.69230769230769273e-01
25 10 7.69230769230768940e-01
26 10 7.69230769230769273e-01
27 10 7.69230769230769273e-01
28 10 7.69230769230768940e-01
29 10 7.69230769230769162e-01
30 10 7.69230769230769384e-01
31 10 7.69230769230769162e-01
32 10 7.69230769230769273e-01
33 10 7.69230769230769162e-01
34 10 7.69230769230769051e-01
35 10 7.69230769230769273e-01
36 10 7.69230769230769051e-01
37 10 7.69230769230769273e-01
38 10 7.69230769230769162e-01
39 10 7.69230769230769162e-01
40 10 7.69230769230769162e-01
41 10 7.69230769230769273e-01
42 10 7.69230769230768940e-01
43 10 7.69230769230769273e-01
44 10 7.69230769230769273e-01
45 10 7.69230769230768940e-01
46 10 7.69230769230769162e-01
47 10 7.69230769230769384e-01
48 10 7.69230769230769162e-01
49 10 7.69230769230769273e-01
50 10 7.69230769230769162e-01
51 10 7.69230769230769051e-01
52 10 7.69230769230769273e-01
53 10 7.69230769230769051e-01
54 10 7.69230769230769273e-01
55 10 7.69230769230769162e-01
56 10 7.69230769230769162e-01
57 10 7.69230769230769162e-01
58 10 7.69230769230769273e-01
59 10 7.69230769230768940e-01
60 10 7.69230769230769273e-01
61 10 7.69230769230769273e-01
62 10 7.69230769230768940e-01
63 10 7.69230769230769162e-01
64 10 7.69230769230769384e-01
65 10 7.69230769230769162e-01
66 10 7.69230769230769273e-01
67 10 7.69230769230769162e-01
68 10 7.69230769230769051e-01
69 10 7.69230769230769273e-01
1 11 6.97986577181207934e-01
2 11 6.97986577181207712e-01
3 11 6.97986577181207934e-01
4 11 6.97986577181208045e-01
5 11 6.97986577181207934e-01
6 11 6.97986577181207934e-01
7 11 6.97986577181208157e-01
8 11 6.97986577181207934e-01
9 11 6.97986577181207934e-01
10 11 6.97986577181207934e-01
11 11 6.97986577181207934e-01
12 11 6.97986577181207934e-01
13 11 6.97986577181208157e-01
14 11 6.97986577181208045e-01
15 11 6.97986577181208045e-01
16 11 6.97986577181207934e-01
17 11 6.97986577181207712e-01
18 11 6.97986577181207934e-01
19 11 6.97986577181207712e-01
20 11 6.97986577181207934e-01
21 11 6.97986577181208045e-01
22 11 6.97986577181207934e-01
23 11 6.97986577181207934e-01
24 11 6.97986577181208157e-01
25 11 6.97986577181207934e-01
26 11 6.97986577181207934e-01
27 11 6.97986577181207934e-01
28 11 6.97986577181207934e-01
29 11 6.97986577181207934e-01
30 11 6.97986577181208157e-01
31 11 6.97986577181208045e-01
32 11 6.97986577181208045e-01
33 11 6.97986577181207934e-01
34 11 6.97986577181207712e-01
35 11 6.97986577181207934e-01
36 11 6.97986577181207712e-01
37 11 6.97986577181207934e-01
38 11 6.97986577181208045e-01
39 11 6.97986577181207934e-01
40 11 6.97986577181207934e-01
41 11 6.97986577181208157e-01
42 11 6.97986577181207934e-01
43 11 6.97986577181207934e-01
44 11 6.97986577181207934e-01
45 11 6.97986577181207934e-01
46 11 6.97986577181207934e-01
47 11 6.97986577181208157e-01
48 11 6.97986577181208045e-01
49 11 6.97986577181208045e-01
50 11 6.97986577181207934e-01
51 11 6.97986577181207712e-01
52 11 6.97986577181207934e-01
53 11 6.97986577181207712e-01
54 11 6.97986577181207934e-01
55 11 6.97986577181208045e-01
56 11 6.97986577181207934e-01
57 11 6.97986577181207934e-01
58 11 6.97986577181208157e-01
59 11 6.97986577181207934e-01
60 11 6.97986577181207934e-01
61 11 6.97986577181207934e-01
62 11 6.97986577181207934e-01
63 11 6.97986577181207934e-01
64 11 6.97986577181208157e-01
65 11 6.97986577181208045e-01
66 11 6.97986577181208045e-01
67 11 6.97986577181207934e-01
68 11 6.97986577181207712e-01
69 11 6.97986577181207934e-01
1 12 6.15384615384615308e-01
2 12 6.15384615384615086e-01
3 12 6.15384615384615308e-01
4 12 6.15384615384615308e-01
5 12 6.15384615384615197e-01
6 12 6.15384615384615197e-01
7 12 6.15384615384615419e-01
8 12 6.15384615384615308e-01
9 12 6.15384615384615197e-01
10 12 6.15384615384615197e-01
11 12 6.15384615384615308e-01
12 12 6.15384615384615308e-01
13 12 6.15384615384615419e-01
14 12 6.15384615384615308e-01
15 12 6.15384615384615308e-01
16 12 6.15384615384615308e-01
17 12 6.15384615384615086e-01
18 12 6.15384615384615308e-01
19 12 6.15384615384615086e-01
20 12 6.15384615384615308e-01
21 12 6.15384615384615308e-01
22 12 6.15384615384615197e-01
23 12 6.15384615384615197e-01
24 12 6.15384615384615419e-01
25 12 6.15384615384615308e-01
26 12 6.15384615384615197e-01
27 12 6.15384615384615197e-01
28 12 6.15384615384615308e-01
29 12 6.15384615384615308e-01
30 12 6.15384615384615419e-01
31 12 6.15384615384615308e-01
32 12 6.15384615384615308e-01
33 12 6.15384615384615308e-01
34 12 6.15384615384615086e-01
35 12 6.15384615384615308e-01
36 12 6.15384615384615086e-01
37 12 6.15384615384615308e-01
38 12 6.15384615384615308e-01
39 12 6.15384615384615197e-01
40 12 6.15384615384615197e-01
41 12 6.15384615384615419e-01
42 12 6.15384615384615308e-01
43 12 6.15384615384615197e-01
44 12 6.15384615384615197e-01
45 12 6.15384615384615308e-01
46 12 6.15384615384615308e-01
47 12 6.15384615384615419e-01
48 12 6.15384615384615308e-01
49 12 6.15384615384615308e-01
50 12 6.15384615384615308e-01
51 12 6.15384615384615086e-01
52 12 6.15384615384615308e-01
53 12 6.15384615384615086e-01
54 12 6.15384615384615308e-01
55 12 6.15384615384615308e-01
56 12 6.15384615384615197e-01
57 12 6.15384615384615197e-01
58 12 6.15384615384615419e-01
59 12 6.15384615384615308e-01
60 12 6.15384615384615197e-01
61 12 6.15384615384615197e-01
62 12 6.15384615384615308e-01
63 12 6.15384615384615308e-01
64 12 6.15384615384615419e-01
65 12 6.15384615384615308e-01
66 12 6.15384615384615308e-01
67 12 6.15384615384615308e-01
68 12 6.15384615384615086e-01
69 12 6.15384615384615308e-01
1 13 5.21739130434782483e-01
2 13 5.21739130434782372e-01
3 13 5.21739130434782483e-01
4 13 5.21739130434782594e-01
5 13 5.21739130434782483e-01
6 13 5.21739130434782372e-01
7 13 5.21739130434782705e-01
8 13 5.21739130434782483e-01
9 13 5.21739130434782483e-01
10 13 5.21739130434782483e-01
11 13 5.21739130434782594e-01
12 13 5.21739130434782705e-01
13 13 5.21739130434782594e-01
14 13 5.21739130434782483e-01
15 13 5.21739130434782483e-01
16 13 5.21739130434782483e-01
17 13 5.21739130434782372e-01
18 13 5.21739130434782483e-01
19 13 5.21739130434782372e-01
20 13 5.21739130434782483e-01
21 13 5.21739130434782594e-01
22 13 5.21739130434782483e-01
23 13 5.21739130434782372e-01
24 13 5.21739130434782705e-01
25 13 5.21739130434782483e-01
26 13 5.21739130434782483e-01
27 13 5.21739130434782483e-01
28 13 5.21739130434782594e-01
29 13 5.21739130434782705e-01
30 13 5.21739130434782594e-01
31 13 5.21739130434782483e-01
32 13 5.21739130434782483e-01
33 13 5.21739130434782483e-01
34 13 5.21739130434782372e-01
35 13 5.21739130434782483e-01
36 13 5.21739130434782372e-01
37 13 5.21739130434782483e-01
38 13 5.21739130434782594e-01
39 13 5.21739130434782483e-01
40 13 5.21739130434782372e-01
41 13 5.21739130434782705e-01
42 13 5.21739130434782483e-01
43 13 5.21739130434782483e-01
44 13 5.21739130434782483e-01
45 13 5.21739130434782594e-01
46 13 5.21739130434782705e-01
47 13 5.21739130434782594e-01
48 13 5.21739130434782483e-01
49 13 5.21739130434782483e-01
50 13 5.21739130434782483e-01
51 13 5.21739130434782372e-01
52 13 5.21739130434782483e-01
53 13 5.21739130434782372e-01
54 13 5.21739130434782483e-01
55 13 5.21739130434782594e-01
56 13 5.21739130434782483e-01
57 13 5.21739130434782372e-01
58 13 5.21739130434782705e-01
59 13 5.21739130434782483e-01
60 13 5.21739130434782483e-01
61 13 5.21739130434782483e-01
62 13 5.21739130434782594e-01
63 13 5.21739130434782705e-01
64 13 5.21739130434782594e-01
65 13 5.21739130434782483e-01
66 13 5.21739130434782483e-01
67 13 5.21739130434782483e-01
68 13 5.21739130434782372e-01
69 13 5.21739130434782483e-01
1 14 4.17910447761193904e-01
2 14 4.17910447761193793e-01
3 14 4.17910447761193959e-01
4 14 4.17910447761194070e-01
5 14 4.17910447761193904e-01
6 14 4.17910447761193793e-01
7 14 4.17910447761194070e-01
8 14 4.17910447761193848e-01
9 14 4.17910447761193848e-01
10 14 4.17910447761193848e-01
11 14 4.17910447761194015e-01
12 14 4.17910447761194070e-01
13 14 4.17910447761193959e-01
14 14 4.17910447761193959e-01
15 14 4.17910447761193904e-01
16 14 4.17910447761193904e-01
17 14 4.17910447761193793e-01
18 14 4.17910447761193904e-01
19 14 4.17910447761193793e-01
20 14 4.17910447761193959e-01
21 14 4.17910447761194070e-01
22 14 4.17910447761193904e-01
23 14 4.17910447761193793e-01
24 14 4.17910447761194070e-01
25 14 4.17910447761193848e-01
26 14 4.17910447761193848e-01
27 14 4.17910447761193848e-01
28 14 4.17910447761194015e-01
29 14 4.17910447761194070e-01
30 14 4.17910447761193959e-01
31 14 4.17910447761193959e-01
32 14 4.17910447761193904e-01
33 14 4.17910447761193904e-01
34 14 4.17910447761193793e-01
35 14 4.17910447761193904e-01
36 14 4.17910447761193793e-01
37 14 4.17910447761193959e-01
38 14 4.17910447761194070e-01
39 14 4.17910447761193904e-01
40 14 4.17910447761193793e-01
41 14 4.17910447761194070e-01
42 14 4.17910447761193848e-01
43 14 4.17910447761193848e-01
44 14 4.17910447761193848e-01
45 14 4.17910447761194015e-01
46 14 4.17910447761194070e-01
47 14 4.17910447761193959e-01
48 14 4.17910447761193959e-01
49 14 4.17910447761193904e-01
50 14 4.17910447761193904e-01
51 14 4.17910447761193793e-01
52 14 4.17910447761193904e-01
53 14 4.17910447761193793e-01
54 14 4.17910447761193959e-01
55 14 4.17910447761194070e-01
56 14 4.17910447761193904e-01
57 14 4.17910447761193793e-01
58 14 4.17910447761194070e-01
59 14 4.17910447761193848e-01
60 14 4.17910447761193848e-01
61 14 4.17910447761193848e-01
62 14 4.17910447761194015e-01
63 14 4.17910447761194070e-01
64 14 4.17910447761193959e-01
65 14 4.17910447761193959e-01
66 14 4.17910447761193904e-01
67 14 4.17910447761193904e-01
68 14 4.17910447761193793e-01
69 14 4.17910447761193904e-01
1 15 3.05343511450381577e-01
2 15 3.05343511450381466e-01
3 15 3.05343511450381577e-01
4 15 3.05343511450381799e-01
5 15 3.05343511450381633e-01
6 15 3.05343511450381466e-01
7 15 3.05343511450381744e-01
8 15 3.05343511450381466e-01
9 15 3.05343511450381466e-01
10 15 3.05343511450381466e-01
11 15 3.05343511450381688e-01
12 15 3.05343511450381688e-01
13 15 3.05343511450381633e-01
14 15 3.05343511450381633e-01
15 15 3.05343511450381577e-01
16 15 3.05343511450381522e-01
17 15 3.05343511450381466e-01
18 15 3.05343511450381577e-01
19 15 3.05343511450381466e-01
20 15 3.05343511450381577e-01
21 15 3.05343511450381799e-01
22 15 3.05343511450381633e-01
23 15 3.05343511450381466e-01
24 15 3.05343511450381744e-01
25 15 3.05343511450381466e-01
26 15 3.05343511450381466e-01
27 15 3.05343511450381466e-01
28 15 3.05343511450381688e-01
29 15 3.05343511450381688e-01
30 15 3.05343511450381633e-01
31 15 3.05343511450381633e-01
32 15 3.05343511450381577e-01
33 15 3.05343511450381522e-01
34 15 3.05343511450381466e-01
35 15 3.05343511450381577e-01
36 15 3.05343511450381466e-01
37 15 3.05343511450381577e-01
38 15 3.05343511450381799e-01
39 15 3.05343511450381633e-01
40 15 3.05343511450381466e-01
41 15 3.05343511450381744e-01
42 15 3.05343511450381466e-01
43 15 3.05343511450381466e-01
44 15 3.05343511450381466e-01
45 15 3.05343511450381688e-01
46 15 3.05343511450381688e-01
47 15 3.05343511450381633e-01
48 15 3.05343511450381633e-01
49 15 3.05343511450381577e-01
50 15 3.05343511450381522e-01
51 15 3.05343511450381466e-01
52 15 3.05343511450381577e-01
53 15 3.05343511450381466e-01
54 15 3.05343511450381577e-01
55 15 3.05343511450381799e-01
56 15 3.05343511450381633e-01
57 15 3.05343511450381466e-01
58 15 3.05343511450381744e-01
59 15 3.05343511450381466e-01
60 15 3.05343511450381466e-01
61 15 3.05343511450381466e-01
62 15 3.05343511450381688e-01
63 15 3.05343511450381688e-01
64 15 3.05343511450381633e-01
65 15 3.05343511450381633e-01
66 15 3.05343511450381577e-01
67 15 3.05343511450381522e-01
68 15 3.05343511450381466e-01
69 15 3.05343511450381577e-01
1 16 1.86046511627906891e-01
2 16 1.86046511627906808e-01
3 16 1.86046511627906835e-01
4 16 1.86046511627907085e-01
5 16 1.86046511627906891e-01
6 16 1.86046511627906808e-01
7 16 1.86046511627907030e-01
8 16 1.86046511627906835e-01
9 16 1.86046511627906780e-01
10 16 1.86046511627906780e-01
11 16 1.86046511627906974e-01
12 16 1.86046511627906946e-01
13 16 1.86046511627906863e-01
14 16 1.86046511627906946e-01
15 16 1.86046511627906891e-01
16 16 1.86046511627906780e-01
17 16 1.86046511627906808e-01
18 16 1.86046511627906891e-01
19 16 1.86046511627906808e-01
20 16 1.86046511627906835e-01
21 16 1.86046511627907085e-01
22 16 1.86046511627906891e-01
23 16 1.86046511627906808e-01
24 16 1.86046511627907030e-01
25 16 1.86046511627906835e-01
26 16 1.86046511627906780e-01
27 16 1.86046511627906780e-01
28 16 1.86046511627906974e-01
29 16 1.86046511627906946e-01
30 16 1.86046511627906863e-01
31 16 1.86046511627906946e-01
32 16 1.86046511627906891e-01
33 16 1.86046511627906780e-01
34 16 1.86046511627906808e-01
35 16 1.86046511627906891e-01
36 16 1.86046511627906808e-01
37 16 1.86046511627906835e-01
38 16 1.86046511627907085e-01
39 16 1.86046511627906891e-01
40 16 1.86046511627906808e-01
41 16 1.86046511627907030e-01
42 16 1.86046511627906835e-01
43 16 1.86046511627906780e-01
44 16 1.86046511627906780e-01
45 16 1.86046511627906974e-01
46 16 1.86046511627906946e-01
47 16 1.86046511627906863e-01
48 16 1.86046511627906946e-01
49 16 1.86046511627906891e-01
50 16 1.86046511627906780e-01
51 16 1.86046511627906808e-01
52 16 1.86046511627906891e-01
53 16 1.86046511627906808e-01
54 16 1.86046511627906835e-01
55 16 1.86046511627907085e-01
56 16 1.86046511627906891e-01
57 16 1.86046511627906808e-01
58 16 1.86046511627907030e-01
59 16 1.86046511627906835e-01
60 16 1.86046511627906780e-01
61 16 1.86046511627906780e-01
62 16 1.86046511627906974e-01
63 16 1.86046511627906946e-01
64 16 1.86046511627906863e-01
65 16 1.86046511627906946e-01
66 16 1.86046511627906891e-01
67 16 1.86046511627906780e-01
68 16 1.86046511627906808e-01
69 16 1.86046511627906891e-01
1 17 6.24999999999999029e-02
2 17 6.24999999999997918e-02
3 17 6.24999999999998473e-02
4 17 6.25000000000001249e-02
5 17 6.24999999999998820e-02
6 17 6.24999999999998126e-02
7 17 6.25000000000000555e-02
8 17 6.24999999999998820e-02
9 17 6.24999999999997988e-02
10 17 6.24999999999997988e-02
11 17 6.25000000000000278e-02
12 17 6.24999999999999584e-02
13 17 6.24999999999998751e-02
14 17 6.24999999999999722e-02
15 17 6.24999999999999029e-02
16 17 6.24999999999997710e-02
17 17 6.24999999999997918e-02
18 17 6.24999999999999029e-02
19 17 6.24999999999997918e-02
20 17 6.24999999999998473e-02
21 17 6.25000000000001249e-02
22 17 6.24999999999998820e-02
23 17 6.24999999999998126e-02
24 17 6.25000000000000555e-02
25 17 6.24999999999998820e-02
26 17 6.24999999999997988e-02
27 17 6.24999999999997988e-02
28 17 6.25000000000000278e-02
29 17 6.24999999999999584e-02
30 17 6.24999999999998751e-02
31 17 6.24999999999999722e-02
32 17 6.24999999999999029e-02
33 17 6.24999999999997710e-02
34 17 6.24999999999997918e-02
35 17 6.24999999999999029e-02
36 17 6.24999999999997918e-02
37 17 6.24999999999998473e-02
38 17 6.25000000000001249e-02
39 17 6.24999999999998820e-02
40 17 6.24999999999998126e-02
41 17 6.25000000000000555e-02
42 17 6.24999999999998820e-02
43 17 6.24999999999997988e-02
44 17 6.24999999999997988e-02
45 17 6.25000000000000278e-02
46 17 6.24999999999999584e-02
47 17 6.24999999999998751e-02
48 17 6.24999999999999722e-02
49 17 6.24999999999999029e-02
50 17 6.24999999999997710e-02
51 17 6.24999999999997918e-02
52 17 6.24999999999999029e-02
53 17 6.24999999999997918e-02
54 17 6.24999999999998473e-02
55 17 6.25000000000001249e-02
56 17 6.24999999999998820e-02
57 17 6.24999999999998126e-02
58 17 6.25000000000000555e-02
59 17 6.24999999999998820e-02
60 17 6.24999999999997988e-02
61 17 6.24999999999997988e-02
62 17 6.25000000000000278e-02
63 17 6.24999999999999584e-02
64 17 6.24999999999998751e-02
65 17 6.24999999999999722e-02
66 17 6.24999999999999029e-02
67 17 6.24999999999997710e-02
68 17 6.24999999999997918e-02
69 17 6.24999999999999029e-02
1 18 -6.25000000000001110e-02
2 18 -6.25000000000002220e-02
3 18 -6.25000000000001665e-02
4 18 -6.24999999999998473e-02
5 18 -6.25000000000001527e-02
6 18 -6.25000000000001943e-02
7 18 -6.24999999999999167e-02
8 18 -6.25000000000000971e-02
9 18 -6.25000000000001804e-02
10 18 -6.25000000000001804e-02
11 18 -6.24999999999999445e-02
12 18 -6.25000000000000416e-02
13 18 -6.25000000000001110e-02
14 18 -6.25000000000000416e-02
15 18 -6.25000000000001110e-02
16 18 -6.25000000000002359e-02
17 18 -6.25000000000002220e-02
18 18 -6.25000000000001110e-02
19 18 -6.25000000000002220e-02
20 18 -6.25000000000001665e-02
21 18 -6.24999999999998473e-02
22 18 -6.25000000000001527e-02
23 18 -6.25000000000001943e-02
24 18 -6.24999999999999167e-02
25 18 -6.25000000000000971e-02
26 18 -6.25000000000001804e-02
27 18 -6.25000000000001804e-02
28 18 -6.24999999999999445e-02
29 18 -6.25000000000000416e-02
30 18 -6.25000000000001110e-02
31 18 -6.25000000000000416e-02
32 18 -6.25000000000001110e-02
33 18 -6.25000000000002359e-02
34 18 -6.25000000000002220e-02
35 18 -6.25000000000001110e-02
36 18 -6.25000000000002220e-02
37 18 -6.25000000000001665e-02
38 18 -6.24999999999998473e-02
39 18 -6.25000000000001527e-02
40 18 -6.25000000000001943e-02
41 18 -6.24999999999999167e-02
42 18 -6.25000000000000971e-02
43 18 -6.25000000000001804e-02
44 18 -6.25000000000001804e-02
45 18 -6.24999999999999445e-02
46 18 -6.25000000000000416e-02
47 18 -6.25000000000001110e-02
48 18 -6.25000000000000416e-02
49 18 -6.25000000000001110e-02
50 18 -6.25000000000002359e-02
51 18 -6.25000000000002220e-02
52 18 -6.25000000000001110e-02
53 18 -6.25000000000002220e-02
54 18 -6.25000000000001665e-02
55 18 -6.24999999999998473e-02
56 18 -6.25000000000001527e-02
57 18 -6.25000000000001943e-02
58 18 -6.24999999999999167e-02
59 18 -6.25000000000000971e-02
60 18 -6.25000000000001804e-02
61 18 -6.25000000000001804e-02
62 18 -6.24999999999999445e-02
63 18 -6.25000000000000416e-02
64 18 -6.25000000000001110e-02
65 18 -6.25000000000000416e-02
66 18 -6.25000000000001110e-02
67 18 -6.25000000000002359e-02
68 18 -6.25000000000002220e-02
69 18 -6.25000000000001110e-02
1 19 -1.86046511627907113e-01
2 19 -1.86046511627907168e-01
3 19 -1.86046511627907141e-01
4 19 -1.86046511627906780e-01
5 19 -1.86046511627907113e-01
6 19 -1.86046511627907196e-01
7 19 -1.86046511627906863e-01
8 19 -1.86046511627907030e-01
9 19 -1.86046511627907168e-01
10 19 -1.86046511627907168e-01
11 19 -1.86046511627906974e-01
12 19 -1.86046511627907002e-01
13 19 -1.86046511627907057e-01
14 19 -1.86046511627907030e-01
15 19 -1.86046511627907085e-01
16 19 -1.86046511627907196e-01
17 19 -1.86046511627907168e-01
18 19 -1.86046511627907113e-01
19 19 -1.86046511627907168e-01
20 19 -1.86046511627907141e-01
21 19 -1.86046511627906780e-01
22 19 -1.86046511627907113e-01
23 19 -1.86046511627907196e-01
24 19 -1.86046511627906863e-01
25 19 -1.86046511627907030e-01
26 19 -1.86046511627907168e-01
27 19 -1.86046511627907168e-01
28 19 -1.86046511627906974e-01
29 19 -1.86046511627907002e-01
30 19 -1.86046511627907057e-01
31 19 -1.86046511627907030e-01
32 19 -1.86046511627907085e-01
33 19 -1.86046511627907196e-01
34 19 -1.86046511627907168e-01
35 19 -1.86046511627907113e-01
36 19 -1.86046511627907168e-01
37 19 -1.86046511627907141e-01
38 19 -1.86046511627906780e-01
39 19 -1.86046511627907113e-01
40 19 -1.86046511627907196e-01
41 19 -1.86046511627906863e-01
42 19 -1.86046511627907030e-01
43 19 -1.86046511627907168e-01
44 19 -1.86046511627907168e-01
45 19 -1.86046511627906974e-01
46 19 -1.86046511627907002e-01
47 19 -1.86046511627907057e-01
48 19 -1.86046511627907030e-01
49 19 -1.86046511627907085e-01
50 19 -1.86046511627907196e-01
51 19 -1.86046511627907168e-01
52 19 -1.86046511627907113e-01
53 19 -1.86046511627907168e-01
54 19 -1.86046511627907141e-01
55 19 -1.86046511627906780e-01
56 19 -1.86046511627907113e-01
57 19 -1.86046511627907196e-01
58 19 -1.86046511627906863e-01
59 19 -1.86046511627907030e-01
60 19 -1.86046511627907168e-01
61 19 -1.86046511627907168e-01
62 19 -1.86046511627906974e-01
63 19 -1.86046511627907002e-01
64 19 -1.86046511627907057e-01
65 19 -1.86046511627907030e-01
66 19 -1.86046511627907085e-01
67 19 -1.86046511627907196e-01
68 19 -1.86046511627907168e-01
69 19 -1.86046511627907113e-01
1 20 -3.05343511450381855e-01
2 20 -3.05343511450381855e-01
3 20 -3.05343511450381855e-01
4 20 -3.05343511450381522e-01
5 20 -3.05343511450381855e-01
6 20 -3.05343511450381910e-01
7 20 -3.05343511450381577e-01
8 20 -3.05343511450381744e-01
9 20 -3.05343511450381910e-01
10 20 -3.05343511450381910e-01
11 20 -3.05343511450381744e-01
12 20 -3.05343511450381688e-01
13 20 -3.05343511450381688e-01
14 20 -3.05343511450381799e-01
15 20 -3.05343511450381799e-01
16 20 -3.05343511450381910e-01
17 20 -3.05343511450381855e-01
18 20 -3.05343511450381855e-01
19 20 -3.05343511450381855e-01
20 20 -3.05343511450381855e-01
21 20 -3.05343511450381522e-01
22 20 -3.05343511450381855e-01
23 20 -3.05343511450381910e-01
24 20 -3.05343511450381577e-01
25 20 -3.05343511450381744e-01
26 20 -3.05343511450381910e-01
27 20 -3.05343511450381910e-01
28 20 -3.05343511450381744e-01
29 20 -3.05343511450381688e-01
30 20 -3.05343511450381688e-01
31 20 -3.05343511450381799e-01
32 20 -3.05343511450381799e-01
33 20 -3.05343511450381910e-01
34 20 -3.05343511450381855e-01
35 20 -3.05343511450381855e-01
36 20 -3.05343511450381855e-01
37 20 -3.05343511450381855e-01
38 20 -3.05343511450381522e-01
39 20 -3.05343511450381855e-01
40 20 -3.05343511450381910e-01
41 20 -3.05343511450381577e-01
42 20 -3.05343511450381744e-01
43 20 -3.05343511450381910e-01
44 20 -3.05343511450381910e-01
45 20 -3.05343511450381744e-01
46 20 -3.05343511450381688e-01
47 20 -3.05343511450381688e-01
48 20 -3.05343511450381799e-01
49 20 -3.05343511450381799e-01
50 20 -3.05343511450381910e-01
51 20 -3.05343511450381855e-01
52 20 -3.05343511450381855e-01
53 20 -3.05343511450381855e-01
54 20 -3.05343511450381855e-01
55 20 -3.05343511450381522e-01
56 20 -3.05343511450381855e-01
57 20 -3.05343511450381910e-01
58 20 -3.05343511450381577e-01
59 20 -3.05343511450381744e-01
60 20 -3.05343511450381910e-01
61 20 -3.05343511450381910e-01
62 20 -3.05343511450381744e-01
63 20 -3.05343511450381688e-01
64 20 -3.05343511450381688e-01
65 20 -3.05343511450381799e-01
66 20 -3.05343511450381799e-01
67 20 -3.05343511450381910e-01
68 20 -3.05343511450381855e-01
69 20 -3.05343511450381855e-01
1 21 -4.17910447761194237e-01
2 21 -4.17910447761194237e-01
3 21 -4.17910447761194237e-01
4 21 -4.17910447761193904e-01
5 21 -4.17910447761194126e-01
6 21 -4.17910447761194292e-01
7 21 -4.17910447761193848e-01
8 21 -4.17910447761194070e-01
9 21 -4.17910447761194237e-01
10 21 -4.17910447761194237e-01
11 21 -4.17910447761194126e-01
12 21 -4.17910447761193959e-01
13 21 -4.17910447761194015e-01
14 21 -4.17910447761194070e-01
15 21 -4.17910447761194070e-01
16 21 -4.17910447761194237e-01
17 21 -4.17910447761194237e-01
18 21 -4.17910447761194237e-01
19 21 -4.17910447761194237e-01
20 21 -4.17910447761194237e-01
21 21 -4.17910447761193904e-01
22 21 -4.17910447761194126e-01
23 21 -4.17910447761194292e-01
24 21 -4.17910447761193848e-01
25 21 -4.17910447761194070e-01
26 21 -4.17910447761194237e-01
27 21 -4.17910447761194237e-01
28 21 -4.17910447761194126e-01
29 21 -4.17910447761193959e-01
30 21 -4.17910447761194015e-01
31 21 -4.17910447761194070e-01
32 21 -4.17910447761194070e-01
33 21 -4.17910447761194237e-01
34 21 -4.17910447761194237e-01
35 21 -4.17910447761194237e-01
36 21 -4.17910447761194237e-01
37 21 -4.17910447761194237e-01
38 21 -4.17910447761193904e-01
39 21 -4.17910447761194126e-01
40 21 -4.17910447761194292e-01
41 21 -4.17910447761193848e-01
42 21 -4.17910447761194070e-01
43 21 -4.17910447761194237e-01
44 21 -4.17910447761194237e-01
45 21 -4.17910447761194126e-01
46 21 -4.17910447761193959e-01
47 21 -4.17910447761194015e-01
48 21 -4.17910447761194070e-01
49 21 -4.17910447761194070e-01
50 21 -4.17910447761194237e-01
51 21 -4.17910447761194237e-01
52 21 -4.17910447761194237e-01
53 21 -4.17910447761194237e-01
54 21 -4.17910447761194237e-01
55 21 -4.17910447761193904e-01
56 21 -4.17910447761194126e-01
57 21 -4.17910447761194292e-01
58 21 -4.17910447761193848e-01
59 21 -4.17910447761194070e-01
60 21 -4.17910447761194237e-01
61 21 -4.17910447761194237e-01
62 21 -4.17910447761194126e-01
63 21 -4.17910447761193959e-01
64 21 -4.17910447761194015e-01
65 21 -4.17910447761194070e-01
66 21 -4.17910447761194070e-01
67 21 -4.17910447761194237e-01
68 21 -4.17910447761194237e-01
69 21 -4.17910447761194237e-01
1 22 -5.21739130434782927e-01
2 22 -5.21739130434782816e-01
3 22 -5.21739130434782816e-01
4 22 -5.21739130434782483e-01
5 22 -5.21739130434782705e-01
6 22 -5.21739130434782816e-01
7 22 -5.21739130434782372e-01
8 22 -5.21739130434782705e-01
9 22 -5.21739130434782927e-01
10 22 -5.21739130434782927e-01
11 22 -5.21739130434782705e-01
12 22 -5.21739130434782483e-01
13 22 -5.21739130434782594e-01
14 22 -5.21739130434782705e-01
15 22 -5.21739130434782594e-01
16 22 -5.21739130434782816e-01
17 22 -5.21739130434782816e-01
18 22 -5.21739130434782927e-01
19 22 -5.21739130434782816e-01
20 22 -5.21739130434782816e-01
21 22 -5.21739130434782483e-01
22 22 -5.21739130434782705e-01
23 22 -5.21739130434782816e-01
24 22 -5.21739130434782372e-01
25 22 -5.21739130434782705e-01
26 22 -5.21739130434782927e-01
27 22 -5.21739130434782927e-01
28 22 -5.21739130434782705e-01
29 22 -5.21739130434782483e-01
30 22 -5.21739130434782594e-01
31 22 -5.21739130434782705e-01
32 22 -5.21739130434782594e-01
33 22 -5.21739130434782816e-01
34 22 -5.21739130434782816e-01
35 22 -5.21739130434782927e-01
36 22 -5.21739130434782816e-01
37 22 -5.21739130434782816e-01
38 22 -5.21739130434782483e-01
39 22 -5.21739130434782705e-01
40 22 -5.21739130434782816e-01
41 22 -5.21739130434782372e-01
42 22 -5.21739130434782705e-01
43 22 -5.21739130434782927e-01
44 22 -5.21739130434782927e-01
45 22 -5.21739130434782705e-01
46 22 -5.21739130434782483e-01
47 22 -5.21739130434782594e-01
48 22 -5.21739130434782705e-01
49 22 -5.21739130434782594e-01
50 22 -5.21739130434782816e-01
51 22 -5.21739130434782816e-01
52 22 -5.21739130434782927e-01
53 22 -5.21739130434782816e-01
54 22 -5.21739130434782816e-01
55 22 -5.21739130434782483e-01
56 22 -5.21739130434782705e-01
57 22 -5.21739130434782816e-01
58 22 -5.21739130434782372e-01
59 22 -5.21739130434782705e-01
60 22 -5.21739130434782927e-01
61 22 -5.21739130434782927e-01
62 22 -5.21739130434782705e-01
63 22 -5.21739130434782483e-01
64 22 -5.21739130434782594e-01
65 22 -5.21739130434782705e-01
66 22 -5.21739130434782594e-01
67 22 -5.21739130434782816e-01
68 22 -5.21739130434782816e-01
69 22 -5.21739130434782927e-01
1 23 -6.15384615384615641e-01
2 23 -6.15384615384615419e-01
3 23 -6.15384615384615641e-01
4 23 -6.15384615384615308e-01
5 23 -6.15384615384615419e-01
6 23 -6.15384615384615530e-01
7 23 -6.15384615384615197e-01
8 23 -6.15384615384615419e-01
9 23 -6.15384615384615752e-01
10 23 -6.15384615384615752e-01
11 23 -6.15384615384615530e-01
12 23 -6.15384615384615197e-01
13 23 -6.15384615384615419e-01
14 23 -6.15384615384615530e-01
15 23 -6.15384615384615308e-01
16 23 -6.15384615384615641e-01
17 23 -6.15384615384615419e-01
18 23 -6.15384615384615641e-01
19 23 -6.15384615384615419e-01
20 23 -6.15384615384615641e-01
21 23 -6.15384615384615308e-01
22 23 -6.15384615384615419e-01
23 23 -6.15384615384615530e-01
24 23 -6.15384615384615197e-01
25 23 -6.15384615384615419e-01
26 23 -6.15384615384615752e-01
27 23 -6.15384615384615752e-01
28 23 -6.15384615384615530e-01
29 23 -6.15384615384615197e-01
30 23 -6.15384615384615419e-01
31 23 -6.15384615384615530e-01
32 23 -6.15384615384615308e-01
33 23 -6.15384615384615641e-01
34 23 -6.15384615384615419e-01
35 23 -6.15384615384615641e-01
36 23 -6.15384615384615419e-01
37 23 -6.15384615384615641e-01
38 23 -6.15384615384615308e-01
39 23 -6.15384615384615419e-01
40 23 -6.15384615384615530e-01
41 23 -6.15384615384615197e-01
42 23 -6.15384615384615419e-01
43 23 -6.15384615384615752e-01
44 23 -6.15384615384615752e-01
45 23 -6.15384615384615530e-01
46 23 -6.15384615384615197e-01
47 23 -6.15384615384615419e-01
48 23 -6.15384615384615530e-01
49 23 -6.15384615384615308e-01
50 23 -6.15384615384615641e-01
51 23 -6.15384615384615419e-01
52 23 -6.15384615384615641e-01
53 23 -6.15384615384615419e-01
54 23 -6.15384615384615641e-01
55 23 -6.15384615384615308e-01
56 23 -6.15384615384615419e-01
57 23 -6.15384615384615530e-01
58 23 -6.15384615384615197e-01
59 23 -6.15384615384615419e-01
60 23 -6.15384615384615752e-01
61 23 -6.15384615384615752e-01
62 23 -6.15384615384615530e-01
63 23 -6.15384615384615197e-01
64 23 -6.15384615384615419e-01
65 23 -6.15384615384615530e-01
66 23 -6.15384615384615308e-01
67 23 -6.15384615384615641e-01
68 23 -6.15384615384615419e-01
69 23 -6.15384615384615641e-01
1 24 -6.97986577181208268e-01
2 24 -6.97986577181208157e-01
3 24 -6.97986577181208379e-01
4 24 -6.97986577181207934e-01
5 24 -6.97986577181208268e-01
6 24 -6.97986577181208157e-01
7 24 -6.97986577181207934e-01
8 24 -6.97986577181208157e-01
9 24 -6.97986577181208490e-01
10 24 -6.97986577181208490e-01
11 24 -6.97986577181208045e-01
12 24 -6.97986577181207934e-01
13 24 -6.97986577181208045e-01
14 24 -6.97986577181208157e-01
15 24 -6.97986577181207934e-01
16 24 -6.97986577181208379e-01
17 24 -6.97986577181208157e-01
18 24 -6.97986577181208268e-01
19 24 -6.97986577181208157e-01
20 24 -6.97986577181208379e-01
21 24 -6.97986577181207934e-01
22 24 -6.97986577181208268e-01
23 24 -6.97986577181208157e-01
24 24 -6.97986577181207934e-01
25 24 -6.97986577181208157e-01
26 24 -6.97986577181208490e-01
27 24 -6.97986577181208490e-01
28 24 -6.97986577181208045e-01
29 24 -6.97986577181207934e-01
30 24 -6.97986577181208045e-01
31 24 -6.97986577181208157e-01
32 24 -6.97986577181207934e-01
33 24 -6.97986577181208379e-01
34 24 -6.97986577181208157e-01
35 24 -6.97986577181208268e-01
36 24 -6.97986577181208157e-01
37 24 -6.97986577181208379e-01
38 24 -6.97986577181207934e-01
39 24 -6.97986577181208268e-01
40 24 -6.97986577181208157e-01
41 24 -6.97986577181207934e-01
42 24 -6.97986577181208157e-01
43 24 -6.97986577181208490e-01
44 24 -6.97986577181208490e-01
45 24 -6.97986577181208045e-01
46 24 -6.97986577181207934e-01
47 24 -6.97986577181208045e-01
48 24 -6.97986577181208157e-01
49 24 -6.97986577181207934e-01
50 24 -6.97986577181208379e-01
51 24 -6.97986577181208157e-01
52 24 -6.97986577181208268e-01
53 24 -6.97986577181208157e-01
54 24 -6.97986577181208379e-01
55 24 -6.97986577181207934e-01
56 24 -6.97986577181208268e-01
57 24 -6.97986577181208157e-01
58 24 -6.97986577181207934e-01
59 24 -6.97986577181208157e-01
60 24 -6.97986577181208490e-01
61 24 -6.97986577181208490e-01
62 24 -6.97986577181208045e-01
63 24 -6.97986577181207934e-01
64 24 -6.97986577181208045e-01
65 24 -6.97986577181208157e-01
66 24 -6.97986577181207934e-01
67 24 -6.97986577181208379e-01
68 24 -6.97986577181208157e-01
69 24 -6.97986577181208268e-01
1 25 -7.69230769230769496e-01
2 25 -7.69230769230769384e-01
3 25 -7.69230769230769496e-01
4 25 -7.69230769230769051e-01
5 25 -7.69230769230769384e-01
6 25 -7.69230769230769273e-01
7 25 -7.69230769230769162e-01
8 25 -7.69230769230769384e-01
9 25 -7.69230769230769607e-01
10 25 -7.69230769230769607e-01
11 25 -7.69230769230769162e-01
12 25 -7.69230769230769162e-01
13 25 -7.69230769230769273e-01
14 25 -7.69230769230769273e-01
15 25 -7.69230769230769051e-01
16 25 -7.69230769230769496e-01
17 25 -7.69230769230769384e-01
18 25 -7.69230769230769496e-01
19 25 -7.69230769230769384e-01
20 25 -7.69230769230769496e-01
21 25 -7.69230769230769051e-01
22 25 -7.69230769230769384e-01
23 25 -7.69230769230769273e-01
24 25 -7.69230769230769162e-01
25 25 -7.69230769230769384e-01
26 25 -7.69230769230769607e-01
27 25 -7.69230769230769607e-01
28 25 -7.69230769230769162e-01
29 25 -7.69230769230769162e-01
30 25 -7.69230769230769273e-01
31 25 -7.69230769230769273e-01
32 25 -7.69230769230769051e-01
33 25 -7.69230769230769496e-01
34 25 -7.69230769230769384e-01
35 25 -7.69230769230769496e-01
36 25 -7.69230769230769384e-01
37 25 -7.69230769230769496e-01
38 25 -7.69230769230769051e-01
39 25 -7.69230769230769384e-01
40 25 -7.69230769230769273e-01
41 25 -7.69230769230769162e-01
42 25 -7.69230769230769384e-01
43 25 -7.69230769230769607e-01
44 25 -7.69230769230769607e-01
45 25 -7.69230769230769162e-01
46 25 -7.69230769230769162e-01
47 25 -7.69230769230769273e-01
48 25 -7.69230769230769273e-01
49 25 -7.69230769230769051e-01
50 25 -7.69230769230769496e-01
51 25 -7.69230769230769384e-01
52 25 -7.69230769230769496e-01
53 25 -7.69230769230769384e-01
54 25 -7.69230769230769496e-01
55 25 -7.69230769230769051e-01
56 25 -7.69230769230769384e-01
57 25 -7.69230769230769273e-01
58 25 -7.69230769230769162e-01
59 25 -7.69230769230769384e-01
60 25 -7.69230769230769607e-01
61 25 -7.69230769230769607e-01
62 25 -7.69230769230769162e-01
63 25 -7.69230769230769162e-01
64 25 -7.69230769230769273e-01
65 25 -7.69230769230769273e-01
66 25 -7.69230769230769051e-01
67 25 -7.69230769230769496e-01
68 25 -7.69230769230769384e-01
69 25 -7.69230769230769496e-01
1 26 -8.29268292682927011e-01
2 26 -8.29268292682926900e-01
3 26 -8.29268292682927011e-01
4 26 -8.29268292682926678e-01
5 26 -8.29268292682926900e-01
6 26 -8.29268292682926789e-01
7 26 -8.29268292682926789e-01
8 26 -8.29268292682926900e-01
9 26 -8.29268292682927122e-01
10 26 -8.29268292682927122e-01
11 26 -8.29268292682926678e-01
12 26 -8.29268292682926789e-01
13 26 -8.29268292682927011e-01
14 26 -8.29268292682927011e-01
15 26 -8.29268292682926678e-01
16 26 -8.29268292682927011e-01
17 26 -8.29268292682926900e-01
18 26 -8.29268292682927011e-01
19 26 -8.29268292682926900e-01
20 26 -8.29268292682927011e-01
21 26 -8.29268292682926678e-01
22 26 -8.29268292682926900e-01
23 26 -8.29268292682926789e-01
24 26 -8.29268292682926789e-01
25 26 -8.29268292682926900e-01
26 26 -8.29268292682927122e-01
27 26 -8.29268292682927122e-01
28 26 -8.29268292682926678e-01
29 26 -8.29268292682926789e-01
30 26 -8.29268292682927011e-01
31 26 -8.29268292682927011e-01
32 26 -8.29268292682926678e-01
33 26 -8.29268292682927011e-01
34 26 -8.29268292682926900e-01
35 26 -8.29268292682927011e-01
36 26 -8.29268292682926900e-01
37 26 -8.29268292682927011e-01
38 26 -8.29268292682926678e-01
39 26 -8.29268292682926900e-01
40 26 -8.29268292682926789e-01
41 26 -8.29268292682926789e-01
42 26 -8.29268292682926900e-01
43 26 -8.29268292682927122e-01
44 26 -8.29268292682927122e-01
45 26 -8.29268292682926678e-01
46 26 -8.29268292682926789e-01
47 26 -8.29268292682927011e-01
48 26 -8.29268292682927011e-01
49 26 -8.29268292682926678e-01
50 26 -8.29268292682927011e-01
51 26 -8.29268292682926900e-01
52 26 -8.29268292682927011e-01
53 26 -8.29268292682926900e-01
54 26 -8.29268292682927011e-01
55 26 -8.29268292682926678e-01
56 26 -8.29268292682926900e-01
57 26 -8.29268292682926789e-01
58 26 -8.29268292682926789e-01
59 26 -8.29268292682926900e-01
60 26 -8.29268292682927122e-01
61 26 -8.29268292682927122e-01
62 26 -8.29268292682926678e-01
63 26 -8.29268292682926789e-01
64 26 -8.29268292682927011e-01
65 26 -8.29268292682927011e-01
66 26 -8.29268292682926678e-01
67 26 -8.29268292682927011e-01
68 26 -8.29268292682926900e-01
69 26 -8.29268292682927011e-01
1 27 -8.78612716763005785e-01
2 27 -8.78612716763005897e-01
3 27 -8.78612716763005785e-01
4 27 -8.78612716763005674e-01
5 27 -8.78612716763005897e-01
6 27 -8.78612716763005785e-01
7 27 -8.78612716763005785e-01
8 27 -8.78612716763006008e-01
9 27 -8.78612716763006008e-01
10 27 -8.78612716763006008e-01
11 27 -8.78612716763005674e-01
12 27 -8.78612716763005785e-01
13 27 -8.78612716763006008e-01
14 27 -8.78612716763005897e-01
15 27 -8.78612716763005563e-01
16 27 -8.78612716763005785e-01
17 27 -8.78612716763005897e-01
18 27 -8.78612716763005785e-01
19 27 -8.78612716763005897e-01
20 27 -8.78612716763005785e-01
21 27 -8.78612716763005674e-01
22 27 -8.78612716763005897e-01
23 27 -8.78612716763005785e-01
24 27 -8.78612716763005785e-01
25 27 -8.78612716763006008e-01
26 27 -8.78612716763006008e-01
27 27 -8.78612716763006008e-01
28 27 -8.78612716763005674e-01
29 27 -8.78612716763005785e-01
30 27 -8.78612716763006008e-01
31 27 -8.78612716763005897e-01
32 27 -8.78612716763005563e-01
33 27 -8.78612716763005785e-01
34 27 -8.78612716763005897e-01
35 27 -8.78612716763005785e-01
36 27 -8.78612716763005897e-01
37 27 -8.78612716763005785e-01
38 27 -8.78612716763005674e-01
39 27 -8.78612716763005897e-01
40 27 -8.78612716763005785e-01
41 27 -8.78612716763005785e-01
42 27 -8.78612716763006008e-01
43 27 -8.78612716763006008e-01
44 27 -8.78612716763006008e-01
45 27 -8.78612716763005674e-01
46 27 -8.78612716763005785e-01
47 27 -8.78612716763006008e-01
48 27 -8.78612716763005897e-01
49 27 -8.78612716763005563e-01
50 27 -8.78612716763005785e-01
51 27 -8.78612716763005897e-01
52 27 -8.78612716763005785e-01
53 27 -8.78612716763005897e-01
54 27 -8.78612716763005785e-01
55 27 -8.78612716763005674e-01
56 27 -8.78612716763005897e-01
57 27 -8.78612716763005785e-01
58 27 -8.78612716763005785e-01
59 27 -8.78612716763006008e-01
60 27 -8.78612716763006008e-01
61 27 -8.78612716763006008e-01
62 27 -8.78612716763005674e-01
63 27 -8.78612716763005785e-01
64 27 -8.78612716763006008e-01
65 27 -8.78612716763005897e-01
66 27 -8.78612716763005563e-01
67 27 -8.78612716763005785e-01
68 27 -8.78612716763005897e-01
69 27 -8.78612716763005785e-01
1 28 -9.18032786885245811e-01
2 28 -9.18032786885246033e-01
3 28 -9.18032786885245811e-01
4 28 -9.18032786885245811e-01
5 28 -9.18032786885245922e-01
6 28 -9.18032786885245922e-01
7 28 -9.18032786885246033e-01
8 28 -9.18032786885246033e-01
9 28 -9.18032786885246033e-01
10 28 -9.18032786885246033e-01
11 28 -9.18032786885245811e-01
12 28 -9.18032786885246033e-01
13 28 -9.18032786885246144e-01
14 28 -9.18032786885246033e-01
15 28 -9.18032786885245700e-01
16 28 -9.18032786885245811e-01
17 28 -9.18032786885246033e-01
18 28 -9.18032786885245811e-01
19 28 -9.18032786885246033e-01
20 28 -9.18032786885245811e-01
21 28 -9.18032786885245811e-01
22 28 -9.18032786885245922e-01
23 28 -9.18032786885245922e-01
24 28 -9.18032786885246033e-01
25 28 -9.18032786885246033e-01
26 28 -9.18032786885246033e-01
27 28 -9.18032786885246033e-01
28 28 -9.18032786885245811e-01
29 28 -9.18032786885246033e-01
30 28 -9.18032786885246144e-01
31 28 -9.18032786885246033e-01
32 28 -9.18032786885245700e-01
33 28 -9.18032786885245811e-01
34 28 -9.18032786885246033e-01
35 28 -9.18032786885245811e-01
36 28 -9.18032786885246033e-01
37 28 -9.18032786885245811e-01
38 28 -9.18032786885245811e-01
39 28 -9.18032786885245922e-01
40 28 -9.18032786885245922e-01
41 28 -9.18032786885246033e-01
42 28 -9.18032786885246033e-01
43 28 -9.18032786885246033e-01
44 28 -9.18032786885246033e-01
45 28 -9.18032786885245811e-01
46 28 -9.18032786885246033e-01
47 28 -9.18032786885246144e-01
48 28 -9.18032786885246033e-01
49 28 -9.18032786885245700e-01
50 28 -9.18032786885245811e-01
51 28 -9.18032786885246033e-01
52 28 -9.18032786885245811e-01
53 28 -9.18032786885246033e-01
54 28 -9.18032786885245811e-01
55 28 -9.18032786885245811e-01
56 28 -9.18032786885245922e-01
57 28 -9.18032786885245922e-01
58 28 -9.18032786885246033e-01
59 28 -9.18032786885246033e-01
60 28 -9.18032786885246033e-01
61 28 -9.18032786885246033e-01
62 28 -9.18032786885245811e-01
63 28 -9.18032786885246033e-01
64 28 -9.18032786885246144e-01
65 28 -9.18032786885246033e-01
66 28 -9.18032786885245700e-01
67 28 -9.18032786885245811e-01
68 28 -9.18032786885246033e-01
69 28 -9.18032786885245811e-01
1 29 -9.48453608247422641e-01
2 29 -9.48453608247422753e-01
3 29 -9.48453608247422530e-01
4 29 -9.48453608247422641e-01
5 29 -9.48453608247422641e-01
6 29 -9.48453608247422641e-01
7 29 -9.48453608247422864e-01
8 29 -9.48453608247422753e-01
9 29 -9.48453608247422641e-01
10 29 -9.48453608247422641e-01
11 29 -9.48453608247422753e-01
12 29 -9.48453608247422864e-01
13 29 -9.48453608247422975e-01
14 29 -9.48453608247422641e-01
15 29 -9.48453608247422530e-01
16 29 -9.48453608247422641e-01
17 29 -9.48453608247422753e-01
18 29 -9.48453608247422641e-01
19 29 -9.48453608247422753e-01
20 29 -9.48453608247422530e-01
21 29 -9.48453608247422641e-01
22 29 -9.48453608247422641e-01
23 29 -9.48453608247422641e-01
24 29 -9.48453608247422864e-01
25 29 -9.48453608247422753e-01
26 29 -9.48453608247422641e-01
27 29 -9.48453608247422641e-01
28 29 -9.48453608247422753e-01
29 29 -9.48453608247422864e-01
30 29 -9.48453608247422975e-01
31 29 -9.48453608247422641e-01
32 29 -9.48453608247422530e-01
33 29 -9.48453608247422641e-01
34 29 -9.48453608247422753e-01
35 29 -9.48453608247422641e-01
36 29 -9.48453608247422753e-01
37 29 -9.48453608247422530e-01
38 29 -9.48453608247422641e-01
39 29 -9.48453608247422641e-01
40 29 -9.48453608247422641e-01
41 29 -9.48453608247422864e-01
42 29 -9.48453608247422753e-01
43 29 -9.48453608247422641e-01
44 29 -9.48453608247422641e-01
45 29 -9.48453608247422753e-01
46 29 -9.48453608247422864e-01
47 29 -9.48453608247422975e-01
48 29 -9.48453608247422641e-01
49 29 -9.48453608247422530e-01
50 29 -9.48453608247422641e-01
51 29 -9.48453608247422753e-01
52 29 -9.48453608247422641e-01
53 29 -9.48453608247422753e-01
54 29 -9.48453608247422530e-01
55 29 -9.48453608247422641e-01
56 29 -9.48453608247422641e-01
57 29 -9.48453608247422641e-01
58 29 -9.48453608247422864e-01
59 29 -9.48453608247422753e-01
60 29 -9.48453608247422641e-01
61 29 -9.48453608247422641e-01
62 29 -9.48453608247422753e-01
63 29 -9.48453608247422864e-01
64 29 -9.48453608247422975e-01
65 29 -9.48453608247422641e-01
66 29 -9.48453608247422530e-01
67 29 -9.48453608247422641e-01
68 29 -9.48453608247422753e-01
69 29 -9.48453608247422641e-01
1 30 -9.70873786407767003e-01
2 30 -9.70873786407767003e-01
3 30 -9.70873786407766781e-01
4 30 -9.70873786407766892e-01
5 30 -9.70873786407766892e-01
6 30 -9.70873786407767003e-01
7 30 -9.70873786407767114e-01
8 30 -9.70873786407767003e-01
9 30 -9.70873786407767003e-01
10 30 -9.70873786407767003e-01
11 30 -9.70873786407767003e-01
12 30 -9.70873786407767114e-01
13 30 -9.70873786407767225e-01
14 30 -9.70873786407766892e-01
15 30 -9.70873786407766892e-01
16 30 -9.70873786407766892e-01
17 30 -9.70873786407767003e-01
18 30 -9.70873786407767003e-01
19 30 -9.70873786407767003e-01
20 30 -9.70873786407766781e-01
21 30 -9.70873786407766892e-01
22 30 -9.70873786407766892e-01
23 30 -9.70873786407767003e-01
24 30 -9.70873786407767114e-01
25 30 -9.70873786407767003e-01
26 30 -9.70873786407767003e-01
27 30 -9.70873786407767003e-01
28 30 -9.70873786407767003e-01
29 30 -9.70873786407767114e-01
30 30 -9.70873786407767225e-01
31 30 -9.70873786407766892e-01
32 30 -9.70873786407766892e-01
33 30 -9.70873786407766892e-01
34 30 -9.70873786407767003e-01
35 30 -9.70873786407767003e-01
36 30 -9.70873786407767003e-01
37 30 -9.70873786407766781e-01
38 30 -9.70873786407766892e-01
39 30 -9.70873786407766892e-01
40 30 -9.70873786407767003e-01
41 30 -9.70873786407767114e-01
42 30 -9.70873786407767003e-01
43 30 -9.70873786407767003e-01
44 30 -9.70873786407767003e-01
45 30 -9.70873786407767003e-01
46 30 -9.70873786407767114e-01
47 30 -9.70873786407767225e-01
48 30 -9.70873786407766892e-01
49 30 -9.70873786407766892e-01
50 30 -9.70873786407766892e-01
51 30 -9.70873786407767003e-01
52 30 -9.70873786407767003e-01
53 30 -9.70873786407767003e-01
54 30 -9.70873786407766781e-01
55 30 -9.70873786407766892e-01
56 30 -9.70873786407766892e-01
57 30 -9.70873786407767003e-01
58 30 -9.70873786407767114e-01
59 30 -9.70873786407767003e-01
60 30 -9.70873786407767003e-01
61 30 -9.70873786407767003e-01
62 30 -9.70873786407767003e-01
63 30 -9.70873786407767114e-01
64 30 -9.70873786407767225e-01
65 30 -9.70873786407766892e-01
66 30 -9.70873786407766892e-01
67 30 -9.70873786407766892e-01
68 30 -9.70873786407767003e-01
69 30 -9.70873786407767003e-01
1 31 -9.86301369863013644e-01
2 31 -9.86301369863013644e-01
3 31 -9.86301369863013533e-01
4 31 -9.86301369863013644e-01
5 31 -9.86301369863013644e-01
6 31 -9.86301369863013644e-01
7 31 -9.86301369863013866e-01
8 31 -9.86301369863013644e-01
9 31 -9.86301369863013644e-01
10 31 -9.86301369863013644e-01
11 31 -9.86301369863013644e-01
12 31 -9.86301369863013866e-01
13 31 -9.86301369863013866e-01
14 31 -9.86301369863013755e-01
15 31 -9.86301369863013644e-01
16 31 -9.86301369863013644e-01
17 31 -9.86301369863013644e-01
18 31 -9.86301369863013644e-01
19 31 -9.86301369863013644e-01
20 31 -9.86301369863013533e-01
21 31 -9.86301369863013644e-01
22 31 -9.86301369863013644e-01
23 31 -9.86301369863013644e-01
24 31 -9.86301369863013866e-01
25 31 -9.86301369863013644e-01
26 31 -9.86301369863013644e-01
27 31 -9.86301369863013644e-01
28 31 -9.86301369863013644e-01
29 31 -9.86301369863013866e-01
30 31 -9.86301369863013866e-01
31 31 -9.86301369863013755e-01
32 31 -9.86301369863013644e-01
33 31 -9.86301369863013644e-01
34 31 -9.86301369863013644e-01
35 31 -9.86301369863013644e-01
36 31 -9.86301369863013644e-01
37 31 -9.86301369863013533e-01
38 31 -9.86301369863013644e-01
39 31 -9.86301369863013644e-01
40 31 -9.86301369863013644e-01
41 31 -9.86301369863013866e-01
42 31 -9.86301369863013644e-01
43 31 -9.86301369863013644e-01
44 31 -9.86301369863013644e-01
45 31 -9.86301369863013644e-01
46 31 -9.86301369863013866e-01
47 31 -9.86301369863013866e-01
48 31 -9.86301369863013755e-01
49 31 -9.86301369863013644e-01
50 31 -9.86301369863013644e-01
51 31 -9.86301369863013644e-01
52 31 -9.86301369863013644e-01
53 31 -9.86301369863013644e-01
54 31 -9.86301369863013533e-01
55 31 -9.86301369863013644e-01
56 31 -9.86301369863013644e-01
57 31 -9.86301369863013644e-01
58 31 -9.86301369863013866e-01
59 31 -9.86301369863013644e-01
60 31 -9.86301369863013644e-01
61 31 -9.86301369863013644e-01
62 31 -9.86301369863013644e-01
63 31 -9.86301369863013866e-01
64 31 -9.86301369863013866e-01
65 31 -9.86301369863013755e-01
66 31 -9.86301369863013644e-01
67 31 -9.86301369863013644e-01
68 31 -9.86301369863013644e-01
69 31 -9.86301369863013644e-01
1 32 -9.95708154506437793e-01
2 32 -9.95708154506437682e-01
3 32 -9.95708154506437682e-01
4 32 -9.95708154506437793e-01
5 32 -9.95708154506437682e-01
6 32 -9.95708154506437682e-01
7 32 -9.95708154506437793e-01
8 32 -9.95708154506437793e-01
9 32 -9.95708154506437793e-01
10 32 -9.95708154506437793e-01
11 32 -9.95708154506437793e-01
12 32 -9.95708154506437793e-01
13 32 -9.95708154506437793e-01
14 32 -9.95708154506437682e-01
15 32 -9.95708154506437793e-01
16 32 -9.95708154506437793e-01
17 32 -9.95708154506437682e-01
18 32 -9.95708154506437793e-01
19 32 -9.95708154506437682e-01
20 32 -9.95708154506437682e-01
21 32 -9.95708154506437793e-01
22 32 -9.95708154506437682e-01
23 32 -9.95708154506437682e-01
24 32 -9.95708154506437793e-01
25 32 -9.95708154506437793e-01
26 32 -9.95708154506437793e-01
27 32 -9.95708154506437793e-01
28 32 -9.95708154506437793e-01
29 32 -9.95708154506437793e-01
30 32 -9.95708154506437793e-01
31 32 -9.95708154506437682e-01
32 32 -9.95708154506437793e-01
33 32 -9.95708154506437793e-01
34 32 -9.95708154506437682e-01
35 32 -9.95708154506437793e-01
36 32 -9.95708154506437682e-01
37 32 -9.95708154506437682e-01
38 32 -9.95708154506437793e-01
39 32 -9.95708154506437682e-01
40 32 -9.95708154506437682e-01
41 32 -9.95708154506437793e-01
42 32 -9.95708154506437793e-01
43 32 -9.95708154506437793e-01
44 32 -9.95708154506437793e-01
45 32 -9.95708154506437793e-01
46 32 -9.95708154506437793e-01
47 32 -9.95708154506437793e-01
48 32 -9.95708154506437682e-01
49 32 -9.95708154506437793e-01
50 32 -9.95708154506437793e-01
51 32 -9.95708154506437682e-01
52 32 -9.95708154506437793e-01
53 32 -9.95708154506437682e-01
54 32 -9.95708154506437682e-01
55 32 -9.95708154506437793e-01
56 32 -9.95708154506437682e-01
57 32 -9.95708154506437682e-01
58 32 -9.95708154506437793e-01
59 32 -9.95708154506437793e-01
60 32 -9.95708154506437793e-01
61 32 -9.95708154506437793e-01
62 32 -9.95708154506437793e-01
63 32 -9.95708154506437793e-01
64 32 -9.95708154506437793e-01
65 32 -9.95708154506437682e-01
66 32 -9.95708154506437793e-01
67 32 -9.95708154506437793e-01
68 32 -9.95708154506437682e-01
69 32 -9.95708154506437793e-01
1 33 -1.00000000000000000e+00
2 33 -1.00000000000000000e+00
3 33 -1.00000000000000000e+00
4 33 -1.00000000000000000e+00
5 33 -1.00000000000000000e+00
6 33 -1.00000000000000000e+00
7 33 -1.00000000000000000e+00
8 33 -1.00000000000000000e+00
9 33 -1.00000000000000000e+00
10 33 -1.00000000000000000e+00
11 33 -1.00000000000000000e+00
12 33 -1.00000000000000000e+00
13 33 -1.00000000000000000e+00
14 33 -1.00000000000000000e+00
15 33 -1.00000000000000000e+00
16 33 -1.00000000000000000e+00
17 33 -1.00000000000000000e+00
18 33 -1.00000000000000000e+00
19 33 -1.00000000000000000e+00
20 33 -1.00000000000000000e+00
21 33 -1.00000000000000000e+00
22 33 -1.00000000000000000e+00
23 33 -1.00000000000000000e+00
24 33 -1.00000000000000000e+00
25 33 -1.00000000000000000e+00
26 33 -1.00000000000000000e+00
27 33 -1.00000000000000000e+00
28 33 -1.00000000000000000e+00
29 33 -1.00000000000000000e+00
30 33 -1.00000000000000000e+00
31 33 -1.00000000000000000e+00
32 33 -1.00000000000000000e+00
33 33 -1.00000000000000000e+00
34 33 -1.00000000000000000e+00
35 33 -1.00000000000000000e+00
36 33 -1.00000000000000000e+00
37 33 -1.00000000000000000e+00
38 33 -1.00000000000000000e+00
39 33 -1.00000000000000000e+00
40 33 -1.00000000000000000e+00
41 33 -1.00000000000000000e+00
42 33 -1.00000000000000000e+00
43 33 -1.00000000000000000e+00
44 33 -1.00000000000000000e+00
45 33 -1.00000000000000000e+00
46 33 -1.00000000000000000e+00
47 33 -1.00000000000000000e+00
48 33 -1.00000000000000000e+00
49 33 -1.00000000000000000e+00
50 33 -1.00000000000000000e+00
51 33 -1.00000000000000000e+00
52 33 -1.00000000000000000e+00
53 33 -1.00000000000000000e+00
54 33 -1.00000000000000000e+00
55 33 -1.00000000000000000e+00
56 33 -1.00000000000000000e+00
57 33 -1.00000000000000000e+00
58 33 -1.00000000000000000e+00
59 33 -1.00000000000000000e+00
60 33 -1.00000000000000000e+00
61 33 -1.00000000000000000e+00
62 33 -1.00000000000000000e+00
63 33 -1.00000000000000000e+00
64 33 -1.00000000000000000e+00
65 33 -1.00000000000000000e+00
66 33 -1.00000000000000000e+00
67 33 -1.00000000000000000e+00
68 33 -1.00000000000000000e+00
69 33 -1.00000000000000000e+00
1 34 -1.00000000000000000e+00
2 34 -1.00000000000000000e+00
3 34 -1.00000000000000000e+00
4 34 -1.00000000000000000e+00
5 34 -1.00000000000000000e+00
6 34 -1.00000000000000000e+00
7 34 -1.00000000000000000e+00
8 34 -1.00000000000000000e+00
9 34 -1.00000000000000000e+00
10 34 -1.00000000000000000e+00
11 34 -1.00000000000000000e+00
12 34 -1.00000000000000000e+00
13 34 -1.00000000000000000e+00
14 34 -1.00000000000000000e+00
15 34 -1.00000000000000000e+00
16 34 -1.00000000000000000e+00
17 34 -1.00000000000000000e+00
18 34 -1.00000000000000000e+00
19 34 -1.00000000000000000e+00
20 34 -1.00000000000000000e+00
21 34 -1.00000000000000000e+00
22 34 -1.00000000000000000e+00
23 34 -1.00000000000000000e+00
24 34 -1.00000000000000000e+00
25 34 -1.00000000000000000e+00
26 34 -1.00000000000000000e+00
27 34 -1.00000000000000000e+00
28 34 -1.00000000000000000e+00
29 34 -1.00000000000000000e+00
30 34 -1.00000000000000000e+00
31 34 -1.00000000000000000e+00
32 34 -1.00000000000000000e+00
33 34 -1.00000000000000000e+00
34 34 -1.00000000000000000e+00
35 34 -1.00000000000000000e+00
36 34 -1.00000000000000000e+00
37 34 -1.00000000000000000e+00
38 34 -1.00000000000000000e+00
39 34 -1.00000000000000000e+00
40 34 -1.00000000000000000e+00
41 34 -1.00000000000000000e+00
42 34 -1.00000000000000000e+00
43 34 -1.00000000000000000e+00
44 34 -1.00000000000000000e+00
45 34 -1.00000000000000000e+00
46 34 -1.00000000000000000e+00
47 34 -1.00000000000000000e+00
48 34 -1.00000000000000000e+00
49 34 -1.00000000000000000e+00
50 34 -1.00000000000000000e+00
51 34 -1.00000000000000000e+00
52 34 -1.00000000000000000e+00
53 34 -1.00000000000000000e+00
54 34 -1.00000000000000000e+00
55 34 -1.00000000000000000e+00
56 34 -1.00000000000000000e+00
57 34 -1.00000000000000000e+00
58 34 -1.00000000000000000e+00
59 34 -1.00000000000000000e+00
60 34 -1.00000000000000000e+00
61 34 -1.00000000000000000e+00
62 34 -1.00000000000000000e+00
63 34 -1.00000000000000000e+00
64 34 -1.00000000000000000e+00
65 34 -1.00000000000000000e+00
66 34 -1.00000000000000000e+00
67 34 -1.00000000000000000e+00
68 34 -1.00000000000000000e+00
69 34 -1.00000000000000000e+00
