%%MatrixMarket matrix coordinate  real general
69 34 2346
1 1 0.00000000000000000e+00
2 1 0.00000000000000000e+00
3 1 0.00000000000000000e+00
4 1 0.00000000000000000e+00
5 1 0.00000000000000000e+00
6 1 0.00000000000000000e+00
7 1 0.00000000000000000e+00
8 1 0.00000000000000000e+00
9 1 0.00000000000000000e+00
10 1 0.00000000000000000e+00
11 1 0.00000000000000000e+00
12 1 0.00000000000000000e+00
13 1 0.00000000000000000e+00
14 1 0.00000000000000000e+00
15 1 0.00000000000000000e+00
16 1 0.00000000000000000e+00
17 1 0.00000000000000000e+00
18 1 0.00000000000000000e+00
19 1 0.00000000000000000e+00
20 1 0.00000000000000000e+00
21 1 0.00000000000000000e+00
22 1 0.00000000000000000e+00
23 1 0.00000000000000000e+00
24 1 0.00000000000000000e+00
25 1 0.00000000000000000e+00
26 1 0.00000000000000000e+00
27 1 0.00000000000000000e+00
28 1 0.00000000000000000e+00
29 1 0.00000000000000000e+00
30 1 0.00000000000000000e+00
31 1 0.00000000000000000e+00
32 1 0.00000000000000000e+00
33 1 0.00000000000000000e+00
34 1 0.00000000000000000e+00
35 1 0.00000000000000000e+00
36 1 0.00000000000000000e+00
37 1 0.00000000000000000e+00
38 1 0.00000000000000000e+00
39 1 0.00000000000000000e+00
40 1 0.00000000000000000e+00
41 1 0.00000000000000000e+00
42 1 0.00000000000000000e+00
43 1 0.00000000000000000e+00
44 1 0.00000000000000000e+00
45 1 0.00000000000000000e+00
46 1 0.00000000000000000e+00
47 1 0.00000000000000000e+00
48 1 0.00000000000000000e+00
49 1 0.00000000000000000e+00
50 1 0.00000000000000000e+00
51 1 0.00000000000000000e+00
52 1 0.00000000000000000e+00
53 1 0.00000000000000000e+00
54 1 0.00000000000000000e+00
55 1 0.00000000000000000e+00
56 1 0.00000000000000000e+00
57 1 0.00000000000000000e+00
58 1 0.00000000000000000e+00
59 1 0.00000000000000000e+00
60 1 0.00000000000000000e+00
61 1 0.00000000000000000e+00
62 1 0.00000000000000000e+00
63 1 0.00000000000000000e+00
64 1 0.00000000000000000e+00
65 1 0.00000000000000000e+00
66 1 0.00000000000000000e+00
67 1 0.00000000000000000e+00
68 1 0.00000000000000000e+00
69 1 0.00000000000000000e+00
1 2 0.00000000000000000e+00
2 2 -1.45220227283543533e-03
3 2 -4.39364775079933555e-03
4 2 -7.38985609649754280e-03
5 2 -1.04001021206828418e-02
6 2 -1.33785690444513175e-02
7 2 -1.62760944684645498e-02
8 2 -1.90424353846113843e-02
9 2 -2.16288751237053607e-02
10 2 -2.39909172109106297e-02
11 2 -2.60907709214208174e-02
12 2 -2.78993454122205414e-02
13 2 -2.93975348992081657e-02
14 2 -3.05766827934023967e-02
15 2 -3.14382334693280238e-02
16 2 -3.19926891183639900e-02
17 2 -3.22580645161290452e-02
18 2 -3.22580645161290383e-02
19 2 -3.22580645161290452e-02
20 2 -3.19926891183639969e-02
21 2 -3.14382334693279891e-02
22 2 -3.05766827934023967e-02
23 2 -2.93975348992081761e-02
24 2 -2.78993454122205518e-02
25 2 -2.60907709214208104e-02
26 2 -2.39909172109106297e-02
27 2 -2.16288751237053677e-02
28 2 -1.90424353846113947e-02
29 2 -1.62760944684645567e-02
30 2 -1.33785690444513140e-02
31 2 -1.04001021206828418e-02
32 2 -7.38985609649754974e-03
33 2 -4.39364775079933989e-03
34 2 -1.45220227283543988e-03
35 2 -3.95047354563662462e-18
36 2 1.45220227283543207e-03
37 2 4.39364775079933295e-03
38 2 7.38985609649754280e-03
39 2 1.04001021206828418e-02
40 2 1.33785690444513175e-02
41 2 1.62760944684645498e-02
42 2 1.90424353846113843e-02
43 2 2.16288751237053607e-02
44 2 2.39909172109106297e-02
45 2 2.60907709214208174e-02
46 2 2.78993454122205414e-02
47 2 2.93975348992081657e-02
48 2 3.05766827934023967e-02
49 2 3.14382334693280238e-02
50 2 3.19926891183639900e-02
51 2 3.22580645161290452e-02
52 2 3.22580645161290383e-02
53 2 3.22580645161290452e-02
54 2 3.19926891183639969e-02
55 2 3.14382334693279891e-02
56 2 3.05766827934023967e-02
57 2 2.93975348992081761e-02
58 2 2.78993454122205518e-02
59 2 2.60907709214208104e-02
60 2 2.39909172109106297e-02
61 2 2.16288751237053677e-02
62 2 1.90424353846113947e-02
63 2 1.62760944684645671e-02
64 2 1.33785690444513210e-02
65 2 1.04001021206828522e-02
66 2 7.38985609649755754e-03
67 2 4.39364775079934509e-03
68 2 1.45220227283544357e-03
69 2 7.90094709127324923e-18
1 3 0.00000000000000000e+00
2 3 -4.44386360743204058e-03
3 3 -1.34449392545919564e-02
4 3 -2.26135939776941908e-02
5 3 -3.18252052019178736e-02
6 3 -4.09395696510463092e-02
7 3 -4.98062461631554668e-02
8 3 -5.82714868207206693e-02
9 3 -6.61862144343430131e-02
10 3 -7.34142659715848744e-02
11 3 -7.98399985706997606e-02
12 3 -8.53743917549924791e-02
13 3 -8.99589801851305715e-02
14 3 -9.35672739557764505e-02
15 3 -9.62036929769565508e-02
16 3 -9.79003748557661924e-02
17 3 -9.87124463519313683e-02
18 3 -9.87124463519313544e-02
19 3 -9.87124463519313683e-02
20 3 -9.79003748557662062e-02
21 3 -9.62036929769564536e-02
22 3 -9.35672739557764227e-02
23 3 -8.99589801851305992e-02
24 3 -8.53743917549924930e-02
25 3 -7.98399985706997189e-02
26 3 -7.34142659715848744e-02
27 3 -6.61862144343430270e-02
28 3 -5.82714868207207040e-02
29 3 -4.98062461631554806e-02
30 3 -4.09395696510463092e-02
31 3 -3.18252052019178874e-02
32 3 -2.26135939776942116e-02
33 3 -1.34449392545919703e-02
34 3 -4.44386360743205446e-03
35 3 -1.20887881460897562e-17
36 3 4.44386360743203104e-03
37 3 1.34449392545919477e-02
38 3 2.26135939776941908e-02
39 3 3.18252052019178736e-02
40 3 4.09395696510463092e-02
41 3 4.98062461631554668e-02
42 3 5.82714868207206693e-02
43 3 6.61862144343430131e-02
44 3 7.34142659715848744e-02
45 3 7.98399985706997606e-02
46 3 8.53743917549924791e-02
47 3 8.99589801851305715e-02
48 3 9.35672739557764505e-02
49 3 9.62036929769565508e-02
50 3 9.79003748557661924e-02
51 3 9.87124463519313683e-02
52 3 9.87124463519313544e-02
53 3 9.87124463519313683e-02
54 3 9.79003748557662062e-02
55 3 9.62036929769564536e-02
56 3 9.35672739557764227e-02
57 3 8.99589801851305992e-02
58 3 8.53743917549924930e-02
59 3 7.98399985706997189e-02
60 3 7.34142659715848744e-02
61 3 6.61862144343430270e-02
62 3 5.82714868207207040e-02
63 3 4.98062461631555153e-02
64 3 4.09395696510463161e-02
65 3 3.18252052019179152e-02
66 3 2.26135939776942428e-02
67 3 1.34449392545919859e-02
68 3 4.44386360743206574e-03
69 3 2.41775762921795124e-17
1 4 0.00000000000000000e+00
2 4 -7.60582651571801126e-03
3 4 -2.30114793158303112e-02
4 4 -3.87039495099665704e-02
5 4 -5.44699412439416386e-02
6 4 -7.00694917533591782e-02
7 4 -8.52451157777572438e-02
8 4 -9.97336684299052617e-02
9 4 -1.13279998935570975e-01
10 4 -1.25651059547554705e-01
11 4 -1.36648923501688002e-01
12 4 -1.46121229168113959e-01
13 4 -1.53967911093113058e-01
14 4 -1.60143630885993399e-01
15 4 -1.64655953375886871e-01
16 4 -1.67559883190700892e-01
17 4 -1.68949771689497763e-01
18 4 -1.68949771689497763e-01
19 4 -1.68949771689497763e-01
20 4 -1.67559883190700948e-01
21 4 -1.64655953375886732e-01
22 4 -1.60143630885993371e-01
23 4 -1.53967911093113141e-01
24 4 -1.46121229168114014e-01
25 4 -1.36648923501687947e-01
26 4 -1.25651059547554705e-01
27 4 -1.13279998935571016e-01
28 4 -9.97336684299053172e-02
29 4 -8.52451157777572577e-02
30 4 -7.00694917533591782e-02
31 4 -5.44699412439416525e-02
32 4 -3.87039495099665981e-02
33 4 -2.30114793158303285e-02
34 4 -7.60582651571803381e-03
35 4 -2.06903797116219516e-17
36 4 7.60582651571799391e-03
37 4 2.30114793158302938e-02
38 4 3.87039495099665704e-02
39 4 5.44699412439416386e-02
40 4 7.00694917533591782e-02
41 4 8.52451157777572438e-02
42 4 9.97336684299052617e-02
43 4 1.13279998935570975e-01
44 4 1.25651059547554705e-01
45 4 1.36648923501688002e-01
46 4 1.46121229168113959e-01
47 4 1.53967911093113058e-01
48 4 1.60143630885993399e-01
49 4 1.64655953375886871e-01
50 4 1.67559883190700892e-01
51 4 1.68949771689497763e-01
52 4 1.68949771689497763e-01
53 4 1.68949771689497763e-01
54 4 1.67559883190700948e-01
55 4 1.64655953375886732e-01
56 4 1.60143630885993371e-01
57 4 1.53967911093113141e-01
58 4 1.46121229168114014e-01
59 4 1.36648923501687947e-01
60 4 1.25651059547554705e-01
61 4 1.13279998935571016e-01
62 4 9.97336684299053311e-02
63 4 8.52451157777573132e-02
64 4 7.00694917533591921e-02
65 4 5.44699412439417080e-02
66 4 3.87039495099666467e-02
67 4 2.30114793158303528e-02
68 4 7.60582651571805463e-03
69 4 4.13807594232439032e-17
1 5 0.00000000000000000e+00
2 5 -1.09267646742472087e-02
3 5 -3.30590000666940373e-02
4 5 -5.56032861629669403e-02
5 5 -7.82531955682446850e-02
6 5 -1.00663990383007468e-01
7 5 -1.22465759350097306e-01
8 5 -1.43280460418192424e-01
9 5 -1.62741536124967501e-01
10 5 -1.80514182897628467e-01
11 5 -1.96314053049525539e-01
12 5 -2.09922259169620540e-01
13 5 -2.21195044144527453e-01
14 5 -2.30067273445503540e-01
15 5 -2.36549814939118502e-01
16 5 -2.40721689968272756e-01
17 5 -2.42718446601941751e-01
18 5 -2.42718446601941779e-01
19 5 -2.42718446601941751e-01
20 5 -2.40721689968272867e-01
21 5 -2.36549814939118336e-01
22 5 -2.30067273445503484e-01
23 5 -2.21195044144527536e-01
24 5 -2.09922259169620568e-01
25 5 -1.96314053049525455e-01
26 5 -1.80514182897628467e-01
27 5 -1.62741536124967529e-01
28 5 -1.43280460418192507e-01
29 5 -1.22465759350097347e-01
30 5 -1.00663990383007468e-01
31 5 -7.82531955682446850e-02
32 5 -5.56032861629669611e-02
33 5 -3.30590000666940581e-02
34 5 -1.09267646742472399e-02
35 5 -2.97244368725085753e-17
36 5 1.09267646742471827e-02
37 5 3.30590000666940165e-02
38 5 5.56032861629669403e-02
39 5 7.82531955682446850e-02
40 5 1.00663990383007468e-01
41 5 1.22465759350097306e-01
42 5 1.43280460418192424e-01
43 5 1.62741536124967501e-01
44 5 1.80514182897628467e-01
45 5 1.96314053049525539e-01
46 5 2.09922259169620540e-01
47 5 2.21195044144527453e-01
48 5 2.30067273445503540e-01
49 5 2.36549814939118502e-01
50 5 2.40721689968272756e-01
51 5 2.42718446601941751e-01
52 5 2.42718446601941779e-01
53 5 2.42718446601941751e-01
54 5 2.40721689968272867e-01
55 5 2.36549814939118336e-01
56 5 2.30067273445503484e-01
57 5 2.21195044144527536e-01
58 5 2.09922259169620568e-01
59 5 1.96314053049525455e-01
60 5 1.80514182897628467e-01
61 5 1.62741536124967529e-01
62 5 1.43280460418192535e-01
63 5 1.22465759350097417e-01
64 5 1.00663990383007496e-01
65 5 7.82531955682447683e-02
66 5 5.56032861629670375e-02
67 5 3.30590000666940928e-02
68 5 1.09267646742472694e-02
69 5 5.94488737450171505e-17
1 6 0.00000000000000000e+00
2 6 -1.43872823112871483e-02
3 6 -4.35288194692594124e-02
4 6 -7.32129042137539959e-02
5 6 -1.03036063278105272e-01
6 6 -1.32544379914615623e-01
7 6 -1.61250791589633291e-01
8 6 -1.88657529944448815e-01
9 6 -2.14281948390524196e-01
10 6 -2.37683210718403121e-01
11 6 -2.58486916035931935e-01
12 6 -2.76404855063339561e-01
13 6 -2.91247742661227271e-01
14 6 -3.02929816128450602e-01
15 6 -3.11465385196125932e-01
16 6 -3.16958497347915424e-01
17 6 -3.19587628865979356e-01
18 6 -3.19587628865979412e-01
19 6 -3.19587628865979356e-01
20 6 -3.16958497347915591e-01
21 6 -3.11465385196125766e-01
22 6 -3.02929816128450546e-01
23 6 -2.91247742661227438e-01
24 6 -2.76404855063339561e-01
25 6 -2.58486916035931880e-01
26 6 -2.37683210718403121e-01
27 6 -2.14281948390524196e-01
28 6 -1.88657529944448926e-01
29 6 -1.61250791589633347e-01
30 6 -1.32544379914615623e-01
31 6 -1.03036063278105258e-01
32 6 -7.32129042137540237e-02
33 6 -4.35288194692594402e-02
34 6 -1.43872823112871900e-02
35 6 -3.91381966737813948e-17
36 6 1.43872823112871136e-02
37 6 4.35288194692593777e-02
38 6 7.32129042137539959e-02
39 6 1.03036063278105272e-01
40 6 1.32544379914615623e-01
41 6 1.61250791589633291e-01
42 6 1.88657529944448815e-01
43 6 2.14281948390524196e-01
44 6 2.37683210718403121e-01
45 6 2.58486916035931935e-01
46 6 2.76404855063339561e-01
47 6 2.91247742661227271e-01
48 6 3.02929816128450602e-01
49 6 3.11465385196125932e-01
50 6 3.16958497347915424e-01
51 6 3.19587628865979356e-01
52 6 3.19587628865979412e-01
53 6 3.19587628865979356e-01
54 6 3.16958497347915591e-01
55 6 3.11465385196125766e-01
56 6 3.02929816128450546e-01
57 6 2.91247742661227438e-01
58 6 2.76404855063339561e-01
59 6 2.58486916035931880e-01
60 6 2.37683210718403121e-01
61 6 2.14281948390524196e-01
62 6 1.88657529944448982e-01
63 6 1.61250791589633430e-01
64 6 1.32544379914615623e-01
65 6 1.03036063278105369e-01
66 6 7.32129042137541208e-02
67 6 4.35288194692594749e-02
68 6 1.43872823112872281e-02
69 6 7.82763933475627896e-17
1 7 0.00000000000000000e+00
2 7 -1.79581078875769989e-02
3 7 -5.43323762844748551e-02
4 7 -9.13838488872892735e-02
5 7 -1.28608913109864886e-01
6 7 -1.65440993156247690e-01
7 7 -2.01272140885985079e-01
8 7 -2.35481045220631430e-01
9 7 -2.67465269972378294e-01
10 7 -2.96674566384102334e-01
11 7 -3.22641609809701080e-01
12 7 -3.45006659387186221e-01
13 7 -3.63533450693486804e-01
14 7 -3.78114935308577260e-01
15 7 -3.88768974541471413e-01
16 7 -3.95625439753320818e-01
17 7 -3.98907103825136611e-01
18 7 -3.98907103825136611e-01
19 7 -3.98907103825136611e-01
20 7 -3.95625439753320984e-01
21 7 -3.88768974541471302e-01
22 7 -3.78114935308577260e-01
23 7 -3.63533450693486915e-01
24 7 -3.45006659387186165e-01
25 7 -3.22641609809700969e-01
26 7 -2.96674566384102334e-01
27 7 -2.67465269972378294e-01
28 7 -2.35481045220631569e-01
29 7 -2.01272140885985107e-01
30 7 -1.65440993156247718e-01
31 7 -1.28608913109864886e-01
32 7 -9.13838488872893012e-02
33 7 -5.43323762844748898e-02
34 7 -1.79581078875770475e-02
35 7 -4.88520307856594420e-17
36 7 1.79581078875769538e-02
37 7 5.43323762844748134e-02
38 7 9.13838488872892735e-02
39 7 1.28608913109864886e-01
40 7 1.65440993156247690e-01
41 7 2.01272140885985079e-01
42 7 2.35481045220631430e-01
43 7 2.67465269972378294e-01
44 7 2.96674566384102334e-01
45 7 3.22641609809701080e-01
46 7 3.45006659387186221e-01
47 7 3.63533450693486804e-01
48 7 3.78114935308577260e-01
49 7 3.88768974541471413e-01
50 7 3.95625439753320818e-01
51 7 3.98907103825136611e-01
52 7 3.98907103825136611e-01
53 7 3.98907103825136611e-01
54 7 3.95625439753320984e-01
55 7 3.88768974541471302e-01
56 7 3.78114935308577260e-01
57 7 3.63533450693486915e-01
58 7 3.45006659387186165e-01
59 7 3.22641609809700969e-01
60 7 2.96674566384102334e-01
61 7 2.67465269972378294e-01
62 7 2.35481045220631652e-01
63 7 2.01272140885985218e-01
64 7 1.65440993156247718e-01
65 7 1.28608913109864997e-01
66 7 9.13838488872894261e-02
67 7 5.43323762844749383e-02
68 7 1.79581078875770961e-02
69 7 9.77040615713188840e-17
1 8 0.00000000000000000e+00
2 8 -2.15983609711305029e-02
3 8 -6.53459864902121018e-02
4 8 -1.09908090961203325e-01
5 8 -1.54678975471196273e-01
6 8 -1.98977214747822179e-01
7 8 -2.42071624666816670e-01
8 8 -2.83214949390780846e-01
9 8 -3.21682634065282580e-01
10 8 -3.56812890079034717e-01
11 8 -3.88043662316854054e-01
12 8 -4.14942287547071909e-01
13 8 -4.37224608645448654e-01
14 8 -4.54761877615169841e-01
15 8 -4.67575576396421666e-01
16 8 -4.75821902321101387e-01
17 8 -4.79768786127167668e-01
18 8 -4.79768786127167612e-01
19 8 -4.79768786127167668e-01
20 8 -4.75821902321101664e-01
21 8 -4.67575576396421499e-01
22 8 -4.54761877615169896e-01
23 8 -4.37224608645448820e-01
24 8 -4.14942287547071909e-01
25 8 -3.88043662316853832e-01
26 8 -3.56812890079034717e-01
27 8 -3.21682634065282580e-01
28 8 -2.83214949390780957e-01
29 8 -2.42071624666816670e-01
30 8 -1.98977214747822206e-01
31 8 -1.54678975471196273e-01
32 8 -1.09908090961203367e-01
33 8 -6.53459864902121434e-02
34 8 -2.15983609711305549e-02
35 8 -5.87547308261446947e-17
36 8 2.15983609711304439e-02
37 8 6.53459864902120463e-02
38 8 1.09908090961203325e-01
39 8 1.54678975471196273e-01
40 8 1.98977214747822179e-01
41 8 2.42071624666816670e-01
42 8 2.83214949390780846e-01
43 8 3.21682634065282580e-01
44 8 3.56812890079034717e-01
45 8 3.88043662316854054e-01
46 8 4.14942287547071909e-01
47 8 4.37224608645448654e-01
48 8 4.54761877615169841e-01
49 8 4.67575576396421666e-01
50 8 4.75821902321101387e-01
51 8 4.79768786127167668e-01
52 8 4.79768786127167612e-01
53 8 4.79768786127167668e-01
54 8 4.75821902321101664e-01
55 8 4.67575576396421499e-01
56 8 4.54761877615169896e-01
57 8 4.37224608645448820e-01
58 8 4.14942287547071909e-01
59 8 3.88043662316853832e-01
60 8 3.56812890079034717e-01
61 8 3.21682634065282580e-01
62 8 2.83214949390781068e-01
63 8 2.42071624666816781e-01
64 8 1.98977214747822206e-01
65 8 1.54678975471196412e-01
66 8 1.09908090961203506e-01
67 8 6.53459864902121990e-02
68 8 2.15983609711306139e-02
69 8 1.17509461652289389e-16
1 9 0.00000000000000000e+00
2 9 -2.52541517202845324e-02
3 9 -7.64066060078031073e-02
4 9 -1.28511399922018210e-01
5 9 -1.80860312488948016e-01
6 9 -2.32656578748628967e-01
7 9 -2.83045252585737206e-01
8 9 -3.31152595834827201e-01
9 9 -3.76131413736632170e-01
10 9 -4.17207901740957676e-01
11 9 -4.53724869926171614e-01
12 9 -4.85176421436908367e-01
13 9 -5.11230302027693262e-01
14 9 -5.31735971504778360e-01
15 9 -5.46718547893435769e-01
16 9 -5.56360666863256692e-01
17 9 -5.60975609756097504e-01
18 9 -5.60975609756097615e-01
19 9 -5.60975609756097504e-01
20 9 -5.56360666863256914e-01
21 9 -5.46718547893435547e-01
22 9 -5.31735971504778471e-01
23 9 -5.11230302027693373e-01
24 9 -4.85176421436908367e-01
25 9 -4.53724869926171337e-01
26 9 -4.17207901740957676e-01
27 9 -3.76131413736632170e-01
28 9 -3.31152595834827312e-01
29 9 -2.83045252585737150e-01
30 9 -2.32656578748629078e-01
31 9 -1.80860312488947961e-01
32 9 -1.28511399922018266e-01
33 9 -7.64066060078031489e-02
34 9 -2.52541517202845879e-02
35 9 -6.86996984887539616e-17
36 9 2.52541517202844630e-02
37 9 7.64066060078030379e-02
38 9 1.28511399922018210e-01
39 9 1.80860312488948016e-01
40 9 2.32656578748628967e-01
41 9 2.83045252585737206e-01
42 9 3.31152595834827201e-01
43 9 3.76131413736632170e-01
44 9 4.17207901740957676e-01
45 9 4.53724869926171614e-01
46 9 4.85176421436908367e-01
47 9 5.11230302027693262e-01
48 9 5.31735971504778360e-01
49 9 5.46718547893435769e-01
50 9 5.56360666863256692e-01
51 9 5.60975609756097504e-01
52 9 5.60975609756097615e-01
53 9 5.60975609756097504e-01
54 9 5.56360666863256914e-01
55 9 5.46718547893435547e-01
56 9 5.31735971504778471e-01
57 9 5.11230302027693373e-01
58 9 4.85176421436908367e-01
59 9 4.53724869926171337e-01
60 9 4.17207901740957676e-01
61 9 3.76131413736632170e-01
62 9 3.31152595834827423e-01
63 9 2.83045252585737261e-01
64 9 2.32656578748629078e-01
65 9 1.80860312488948127e-01
66 9 1.28511399922018432e-01
67 9 7.64066060078032183e-02
68 9 2.52541517202846608e-02
69 9 1.37399396977507923e-16
1 10 0.00000000000000000e+00
2 10 -2.88578656781400718e-02
3 10 -8.73096668428073319e-02
4 10 -1.46849704481681914e-01
5 10 -2.06668695987928308e-01
6 10 -2.65856179729481279e-01
7 10 -3.23435210591282774e-01
8 10 -3.78407369822405582e-01
9 10 -4.29804569765939781e-01
10 10 -4.76742585601428792e-01
11 10 -5.18470447797464651e-01
12 10 -5.54410069088997925e-01
13 10 -5.84181783253495568e-01
14 10 -6.07613568330432230e-01
15 10 -6.24734126634082010e-01
16 10 -6.35752155557233189e-01
17 10 -6.41025641025640858e-01
18 10 -6.41025641025641080e-01
19 10 -6.41025641025640858e-01
20 10 -6.35752155557233189e-01
21 10 -6.24734126634081899e-01
22 10 -6.07613568330432452e-01
23 10 -5.84181783253495679e-01
24 10 -5.54410069088997814e-01
25 10 -5.18470447797464429e-01
26 10 -4.76742585601428792e-01
27 10 -4.29804569765939781e-01
28 10 -3.78407369822405748e-01
29 10 -3.23435210591282662e-01
30 10 -2.65856179729481334e-01
31 10 -2.06668695987928280e-01
32 10 -1.46849704481681970e-01
33 10 -8.73096668428073874e-02
34 10 -2.88578656781401342e-02
35 10 -7.85029999453431518e-17
36 10 2.88578656781399885e-02
37 10 8.73096668428072487e-02
38 10 1.46849704481681914e-01
39 10 2.06668695987928308e-01
40 10 2.65856179729481279e-01
41 10 3.23435210591282774e-01
42 10 3.78407369822405582e-01
43 10 4.29804569765939781e-01
44 10 4.76742585601428792e-01
45 10 5.18470447797464651e-01
46 10 5.54410069088997925e-01
47 10 5.84181783253495568e-01
48 10 6.07613568330432230e-01
49 10 6.24734126634082010e-01
50 10 6.35752155557233189e-01
51 10 6.41025641025640858e-01
52 10 6.41025641025641080e-01
53 10 6.41025641025640858e-01
54 10 6.35752155557233189e-01
55 10 6.24734126634081899e-01
56 10 6.07613568330432452e-01
57 10 5.84181783253495679e-01
58 10 5.54410069088997814e-01
59 10 5.18470447797464429e-01
60 10 4.76742585601428792e-01
61 10 4.29804569765939781e-01
62 10 3.78407369822405859e-01
63 10 3.23435210591282829e-01
64 10 2.65856179729481334e-01
65 10 2.06668695987928419e-01
66 10 1.46849704481682136e-01
67 10 8.73096668428074707e-02
68 10 2.88578656781402140e-02
69 10 1.57005999890686304e-16
1 11 0.00000000000000000e+00
2 11 -3.23285566375512770e-02
3 11 -9.78102657006805210e-02
4 11 -1.64511091758941908e-01
5 11 -2.31524421035603944e-01
6 11 -2.97830292083523573e-01
7 11 -3.62334264106690729e-01
8 11 -4.23917840072187524e-01
9 11 -4.81496501914970843e-01
10 11 -5.34079680460338824e-01
11 11 -5.80826088230555593e-01
12 11 -6.21088112297553896e-01
13 11 -6.54440424568278445e-01
14 11 -6.80690314266548691e-01
15 11 -6.99869935689670930e-01
16 11 -7.12213085943713797e-01
17 11 -7.18120805369127257e-01
18 11 -7.18120805369127480e-01
19 11 -7.18120805369127257e-01
20 11 -7.12213085943713797e-01
21 11 -6.99869935689670708e-01
22 11 -6.80690314266548802e-01
23 11 -6.54440424568278556e-01
24 11 -6.21088112297553785e-01
25 11 -5.80826088230555482e-01
26 11 -5.34079680460338824e-01
27 11 -4.81496501914970898e-01
28 11 -4.23917840072187690e-01
29 11 -3.62334264106690618e-01
30 11 -2.97830292083523629e-01
31 11 -2.31524421035603917e-01
32 11 -1.64511091758941991e-01
33 11 -9.78102657006806042e-02
34 11 -3.23285566375513464e-02
35 11 -8.79444345696421425e-17
36 11 3.23285566375511868e-02
37 11 9.78102657006804516e-02
38 11 1.64511091758941908e-01
39 11 2.31524421035603944e-01
40 11 2.97830292083523573e-01
41 11 3.62334264106690729e-01
42 11 4.23917840072187524e-01
43 11 4.81496501914970843e-01
44 11 5.34079680460338824e-01
45 11 5.80826088230555593e-01
46 11 6.21088112297553896e-01
47 11 6.54440424568278445e-01
48 11 6.80690314266548691e-01
49 11 6.99869935689670930e-01
50 11 7.12213085943713797e-01
51 11 7.18120805369127257e-01
52 11 7.18120805369127480e-01
53 11 7.18120805369127257e-01
54 11 7.12213085943713797e-01
55 11 6.99869935689670708e-01
56 11 6.80690314266548802e-01
57 11 6.54440424568278556e-01
58 11 6.21088112297553785e-01
59 11 5.80826088230555482e-01
60 11 5.34079680460338824e-01
61 11 4.81496501914970898e-01
62 11 4.23917840072187746e-01
63 11 3.62334264106690784e-01
64 11 2.97830292083523629e-01
65 11 2.31524421035604083e-01
66 11 1.64511091758942157e-01
67 11 9.78102657006806875e-02
68 11 3.23285566375514366e-02
69 11 1.75888869139284285e-16
1 12 0.00000000000000000e+00
2 12 -3.55738780541435748e-02
3 12 -1.07629007489860665e-01
4 12 -1.81025635706509730e-01
5 12 -2.54766137963300665e-01
6 12 -3.27728163375615111e-01
7 12 -3.98707405056163089e-01
8 12 -4.66473084981074537e-01
9 12 -5.29831815093285696e-01
10 12 -5.87693587341397650e-01
11 12 -6.39132661103056332e-01
12 12 -6.83436412440619256e-01
13 12 -7.20136816447036199e-01
14 12 -7.49021816960060205e-01
15 12 -7.70126796105286560e-01
16 12 -7.83709020850552829e-01
17 12 -7.90209790209789986e-01
18 12 -7.90209790209790319e-01
19 12 -7.90209790209789986e-01
20 12 -7.83709020850552940e-01
21 12 -7.70126796105286338e-01
22 12 -7.49021816960060205e-01
23 12 -7.20136816447036532e-01
24 12 -6.83436412440619145e-01
25 12 -6.39132661103056221e-01
26 12 -5.87693587341397650e-01
27 12 -5.29831815093285696e-01
28 12 -4.66473084981074704e-01
29 12 -3.98707405056162978e-01
30 12 -3.27728163375615056e-01
31 12 -2.54766137963300665e-01
32 12 -1.81025635706509785e-01
33 12 -1.07629007489860734e-01
34 12 -3.55738780541436511e-02
35 12 -9.67727890235321285e-17
36 12 3.55738780541434776e-02
37 12 1.07629007489860595e-01
38 12 1.81025635706509730e-01
39 12 2.54766137963300665e-01
40 12 3.27728163375615111e-01
41 12 3.98707405056163089e-01
42 12 4.66473084981074537e-01
43 12 5.29831815093285696e-01
44 12 5.87693587341397650e-01
45 12 6.39132661103056332e-01
46 12 6.83436412440619256e-01
47 12 7.20136816447036199e-01
48 12 7.49021816960060205e-01
49 12 7.70126796105286560e-01
50 12 7.83709020850552829e-01
51 12 7.90209790209789986e-01
52 12 7.90209790209790319e-01
53 12 7.90209790209789986e-01
54 12 7.83709020850552940e-01
55 12 7.70126796105286338e-01
56 12 7.49021816960060205e-01
57 12 7.20136816447036532e-01
58 12 6.83436412440619145e-01
59 12 6.39132661103056221e-01
60 12 5.87693587341397650e-01
61 12 5.29831815093285696e-01
62 12 4.66473084981074815e-01
63 12 3.98707405056163200e-01
64 12 3.27728163375615056e-01
65 12 2.54766137963300832e-01
66 12 1.81025635706509952e-01
67 12 1.07629007489860831e-01
68 12 3.55738780541437552e-02
69 12 1.93545578047064257e-16
1 13 0.00000000000000000e+00
2 13 -3.84938834350146628e-02
3 13 -1.16463503423362105e-01
4 13 -1.95884736239043566e-01
5 13 -2.75678069256940828e-01
6 13 -3.54629025830455857e-01
7 13 -4.31434446127850146e-01
8 13 -5.04762526354408880e-01
9 13 -5.73321921757349195e-01
10 13 -6.35933153315297317e-01
11 13 -6.91594492975052710e-01
12 13 -7.39534822593498009e-01
13 13 -7.79247700444227753e-01
14 13 -8.10503664190333262e-01
15 13 -8.33341000223201567e-01
16 13 -8.48038092717213532e-01
17 13 -8.55072463768115743e-01
18 13 -8.55072463768116076e-01
19 13 -8.55072463768115743e-01
20 13 -8.48038092717213643e-01
21 13 -8.33341000223201456e-01
22 13 -8.10503664190333373e-01
23 13 -7.79247700444228086e-01
24 13 -7.39534822593497787e-01
25 13 -6.91594492975052599e-01
26 13 -6.35933153315297317e-01
27 13 -5.73321921757349195e-01
28 13 -5.04762526354408991e-01
29 13 -4.31434446127850146e-01
30 13 -3.54629025830455802e-01
31 13 -2.75678069256940772e-01
32 13 -1.95884736239043594e-01
33 13 -1.16463503423362175e-01
34 13 -3.84938834350147460e-02
35 13 -1.04716175579266444e-16
36 13 3.84938834350145587e-02
37 13 1.16463503423362022e-01
38 13 1.95884736239043566e-01
39 13 2.75678069256940828e-01
40 13 3.54629025830455857e-01
41 13 4.31434446127850146e-01
42 13 5.04762526354408880e-01
43 13 5.73321921757349195e-01
44 13 6.35933153315297317e-01
45 13 6.91594492975052710e-01
46 13 7.39534822593498009e-01
47 13 7.79247700444227753e-01
48 13 8.10503664190333262e-01
49 13 8.33341000223201567e-01
50 13 8.48038092717213532e-01
51 13 8.55072463768115743e-01
52 13 8.55072463768116076e-01
53 13 8.55072463768115743e-01
54 13 8.48038092717213643e-01
55 13 8.33341000223201456e-01
56 13 8.10503664190333373e-01
57 13 7.79247700444228086e-01
58 13 7.39534822593497787e-01
59 13 6.91594492975052599e-01
60 13 6.35933153315297317e-01
61 13 5.73321921757349195e-01
62 13 5.04762526354409102e-01
63 13 4.31434446127850313e-01
64 13 3.54629025830455802e-01
65 13 2.75678069256940939e-01
66 13 1.95884736239043789e-01
67 13 1.16463503423362286e-01
68 13 3.84938834350148570e-02
69 13 2.09432351158532888e-16
1 14 0.00000000000000000e+00
2 14 -4.09867835512210260e-02
3 14 -1.24005789503903646e-01
4 14 -2.08570416096669459e-01
5 14 -2.93531240450914221e-01
6 14 -3.77595135269513993e-01
7 14 -4.59374546863678512e-01
8 14 -5.37451422571643578e-01
9 14 -6.10450788939206457e-01
10 14 -6.77116782773611425e-01
11 14 -7.36382803170249622e-01
12 14 -7.87427793649388752e-01
13 14 -8.29712514841830062e-01
14 14 -8.62992644213790294e-01
15 14 -8.87308947619391719e-01
16 14 -9.02957837654123963e-01
17 14 -9.10447761194029703e-01
18 14 -9.10447761194029925e-01
19 14 -9.10447761194029703e-01
20 14 -9.02957837654124074e-01
21 14 -8.87308947619391719e-01
22 14 -8.62992644213790294e-01
23 14 -8.29712514841830395e-01
24 14 -7.87427793649388308e-01
25 14 -7.36382803170249622e-01
26 14 -6.77116782773611425e-01
27 14 -6.10450788939206457e-01
28 14 -5.37451422571643689e-01
29 14 -4.59374546863678568e-01
30 14 -3.77595135269513826e-01
31 14 -2.93531240450914166e-01
32 14 -2.08570416096669514e-01
33 14 -1.24005789503903716e-01
34 14 -4.09867835512211162e-02
35 14 -1.11497693653714259e-16
36 14 4.09867835512209150e-02
37 14 1.24005789503903563e-01
38 14 2.08570416096669459e-01
39 14 2.93531240450914221e-01
40 14 3.77595135269513993e-01
41 14 4.59374546863678512e-01
42 14 5.37451422571643578e-01
43 14 6.10450788939206457e-01
44 14 6.77116782773611425e-01
45 14 7.36382803170249622e-01
46 14 7.87427793649388752e-01
47 14 8.29712514841830062e-01
48 14 8.62992644213790294e-01
49 14 8.87308947619391719e-01
50 14 9.02957837654123963e-01
51 14 9.10447761194029703e-01
52 14 9.10447761194029925e-01
53 14 9.10447761194029703e-01
54 14 9.02957837654124074e-01
55 14 8.87308947619391719e-01
56 14 8.62992644213790294e-01
57 14 8.29712514841830395e-01
58 14 7.87427793649388308e-01
59 14 7.36382803170249622e-01
60 14 6.77116782773611425e-01
61 14 6.10450788939206457e-01
62 14 5.37451422571643800e-01
63 14 4.59374546863678679e-01
64 14 3.77595135269513882e-01
65 14 2.93531240450914388e-01
66 14 2.08570416096669708e-01
67 14 1.24005789503903840e-01
68 14 4.09867835512212272e-02
69 14 2.22995387307428519e-16
1 15 0.00000000000000000e+00
2 15 -4.29563649407428486e-02
3 15 -1.29964771254560518e-01
4 15 -2.18593071556702129e-01
5 15 -3.07636608531648981e-01
6 15 -3.95740114864495007e-01
7 15 -4.81449359277100142e-01
8 15 -5.63278145918848061e-01
9 15 -6.39785428277544033e-01
10 15 -7.09654993834187953e-01
11 15 -7.71768987179431987e-01
12 15 -8.25266896735531441e-01
13 15 -8.69583570491844315e-01
14 15 -9.04462945224689396e-01
15 15 -9.29947745753022970e-01
16 15 -9.46348628501225031e-01
17 15 -9.54198473282442672e-01
18 15 -9.54198473282442783e-01
19 15 -9.54198473282442672e-01
20 15 -9.46348628501225031e-01
21 15 -9.29947745753022859e-01
22 15 -9.04462945224689729e-01
23 15 -8.69583570491844537e-01
24 15 -8.25266896735530775e-01
25 15 -7.71768987179431876e-01
26 15 -7.09654993834187953e-01
27 15 -6.39785428277544033e-01
28 15 -5.63278145918848172e-01
29 15 -4.81449359277100253e-01
30 15 -3.95740114864494841e-01
31 15 -3.07636608531648870e-01
32 15 -2.18593071556702184e-01
33 15 -1.29964771254560574e-01
34 15 -4.29563649407429457e-02
35 15 -1.16855610605663482e-16
36 15 4.29563649407427375e-02
37 15 1.29964771254560407e-01
38 15 2.18593071556702129e-01
39 15 3.07636608531648981e-01
40 15 3.95740114864495007e-01
41 15 4.81449359277100142e-01
42 15 5.63278145918848061e-01
43 15 6.39785428277544033e-01
44 15 7.09654993834187953e-01
45 15 7.71768987179431987e-01
46 15 8.25266896735531441e-01
47 15 8.69583570491844315e-01
48 15 9.04462945224689396e-01
49 15 9.29947745753022970e-01
50 15 9.46348628501225031e-01
51 15 9.54198473282442672e-01
52 15 9.54198473282442783e-01
53 15 9.54198473282442672e-01
54 15 9.46348628501225031e-01
55 15 9.29947745753022859e-01
56 15 9.04462945224689729e-01
57 15 8.69583570491844537e-01
58 15 8.25266896735530775e-01
59 15 7.71768987179431876e-01
60 15 7.09654993834187953e-01
61 15 6.39785428277544033e-01
62 15 5.63278145918848172e-01
63 15 4.81449359277100419e-01
64 15 3.95740114864494896e-01
65 15 3.07636608531649036e-01
66 15 2.18593071556702379e-01
67 15 1.29964771254560713e-01
68 15 4.29563649407430567e-02
69 15 2.33711221211326964e-16
1 16 0.00000000000000000e+00
2 16 -4.43203127763807034e-02
3 16 -1.34091404611604542e-01
4 16 -2.25533825208611066e-01
5 16 -3.17404667047506528e-01
6 16 -4.08305630449649848e-01
7 16 -4.96736309475541982e-01
8 16 -5.81163318676085283e-01
9 16 -6.60099855519597045e-01
10 16 -7.32187915188799110e-01
11 16 -7.96274148198710563e-01
12 16 -8.51470720061335618e-01
13 16 -8.97194534094438167e-01
14 16 -9.33181396570738508e-01
15 16 -9.59475388904994841e-01
16 16 -9.76397031465108922e-01
17 16 -9.84496124031007724e-01
18 16 -9.84496124031007724e-01
19 16 -9.84496124031007724e-01
20 16 -9.76397031465108811e-01
21 16 -9.59475388904994730e-01
22 16 -9.33181396570738730e-01
23 16 -8.97194534094438390e-01
24 16 -8.51470720061334951e-01
25 16 -7.96274148198710563e-01
26 16 -7.32187915188799110e-01
27 16 -6.60099855519597045e-01
28 16 -5.81163318676085394e-01
29 16 -4.96736309475542093e-01
30 16 -4.08305630449649681e-01
31 16 -3.17404667047506472e-01
32 16 -2.25533825208611094e-01
33 16 -1.34091404611604598e-01
34 16 -4.43203127763808005e-02
35 16 -1.20566002706754931e-16
36 16 4.43203127763805924e-02
37 16 1.34091404611604431e-01
38 16 2.25533825208611066e-01
39 16 3.17404667047506528e-01
40 16 4.08305630449649848e-01
41 16 4.96736309475541982e-01
42 16 5.81163318676085283e-01
43 16 6.60099855519597045e-01
44 16 7.32187915188799110e-01
45 16 7.96274148198710563e-01
46 16 8.51470720061335618e-01
47 16 8.97194534094438167e-01
48 16 9.33181396570738508e-01
49 16 9.59475388904994841e-01
50 16 9.76397031465108922e-01
51 16 9.84496124031007724e-01
52 16 9.84496124031007724e-01
53 16 9.84496124031007724e-01
54 16 9.76397031465108811e-01
55 16 9.59475388904994730e-01
56 16 9.33181396570738730e-01
57 16 8.97194534094438390e-01
58 16 8.51470720061334951e-01
59 16 7.96274148198710563e-01
60 16 7.32187915188799110e-01
61 16 6.60099855519597045e-01
62 16 5.81163318676085394e-01
63 16 4.96736309475542315e-01
64 16 4.08305630449649681e-01
65 16 3.17404667047506694e-01
66 16 2.25533825208611344e-01
67 16 1.34091404611604764e-01
68 16 4.43203127763809115e-02
69 16 2.41132005413509862e-16
1 17 0.00000000000000000e+00
2 17 -4.50182704578985099e-02
3 17 -1.36203080274779426e-01
4 17 -2.29085538991423837e-01
5 17 -3.22403165741168063e-01
6 17 -4.14735640377990822e-01
7 17 -5.04558928522400918e-01
8 17 -5.90315496922952820e-01
9 17 -6.70495128834866283e-01
10 17 -7.43718433538228973e-01
11 17 -8.08813898564044620e-01
12 17 -8.64879707778836937e-01
13 17 -9.11323581875452926e-01
14 17 -9.47877166595474496e-01
15 17 -9.74585237549167926e-01
16 17 -9.91773362669283842e-01
17 17 -1.00000000000000000e+00
18 17 -1.00000000000000000e+00
19 17 -1.00000000000000000e+00
20 17 -9.91773362669283731e-01
21 17 -9.74585237549167926e-01
22 17 -9.47877166595474718e-01
23 17 -9.11323581875453148e-01
24 17 -8.64879707778836160e-01
25 17 -8.08813898564044620e-01
26 17 -7.43718433538228973e-01
27 17 -6.70495128834866283e-01
28 17 -5.90315496922952931e-01
29 17 -5.04558928522401029e-01
30 17 -4.14735640377990600e-01
31 17 -3.22403165741167952e-01
32 17 -2.29085538991423865e-01
33 17 -1.36203080274779453e-01
34 17 -4.50182704578986070e-02
35 17 -1.22464679914735321e-16
36 17 4.50182704578984058e-02
37 17 1.36203080274779287e-01
38 17 2.29085538991423837e-01
39 17 3.22403165741168063e-01
40 17 4.14735640377990822e-01
41 17 5.04558928522400918e-01
42 17 5.90315496922952820e-01
43 17 6.70495128834866283e-01
44 17 7.43718433538228973e-01
45 17 8.08813898564044620e-01
46 17 8.64879707778836937e-01
47 17 9.11323581875452926e-01
48 17 9.47877166595474496e-01
49 17 9.74585237549167926e-01
50 17 9.91773362669283842e-01
51 17 1.00000000000000000e+00
52 17 1.00000000000000000e+00
53 17 1.00000000000000000e+00
54 17 9.91773362669283731e-01
55 17 9.74585237549167926e-01
56 17 9.47877166595474718e-01
57 17 9.11323581875453148e-01
58 17 8.64879707778836160e-01
59 17 8.08813898564044620e-01
60 17 7.43718433538228973e-01
61 17 6.70495128834866283e-01
62 17 5.90315496922952931e-01
63 17 5.04558928522401251e-01
64 17 4.14735640377990600e-01
65 17 3.22403165741168174e-01
66 17 2.29085538991424115e-01
67 17 1.36203080274779648e-01
68 17 4.50182704578987181e-02
69 17 2.44929359829470641e-16
1 18 0.00000000000000000e+00
2 18 -4.50182704578985099e-02
3 18 -1.36203080274779426e-01
4 18 -2.29085538991423837e-01
5 18 -3.22403165741168063e-01
6 18 -4.14735640377990822e-01
7 18 -5.04558928522400918e-01
8 18 -5.90315496922952820e-01
9 18 -6.70495128834866283e-01
10 18 -7.43718433538228973e-01
11 18 -8.08813898564044620e-01
12 18 -8.64879707778836826e-01
13 18 -9.11323581875452926e-01
14 18 -9.47877166595474607e-01
15 18 -9.74585237549167926e-01
16 18 -9.91773362669283842e-01
17 18 -1.00000000000000000e+00
18 18 -1.00000000000000000e+00
19 18 -1.00000000000000000e+00
20 18 -9.91773362669283731e-01
21 18 -9.74585237549167926e-01
22 18 -9.47877166595474718e-01
23 18 -9.11323581875453259e-01
24 18 -8.64879707778836160e-01
25 18 -8.08813898564044620e-01
26 18 -7.43718433538228973e-01
27 18 -6.70495128834866283e-01
28 18 -5.90315496922952931e-01
29 18 -5.04558928522401029e-01
30 18 -4.14735640377990544e-01
31 18 -3.22403165741168007e-01
32 18 -2.29085538991423865e-01
33 18 -1.36203080274779453e-01
34 18 -4.50182704578986070e-02
35 18 -1.22464679914735321e-16
36 18 4.50182704578984128e-02
37 18 1.36203080274779259e-01
38 18 2.29085538991423837e-01
39 18 3.22403165741168063e-01
40 18 4.14735640377990822e-01
41 18 5.04558928522400918e-01
42 18 5.90315496922952820e-01
43 18 6.70495128834866283e-01
44 18 7.43718433538228973e-01
45 18 8.08813898564044620e-01
46 18 8.64879707778836826e-01
47 18 9.11323581875452926e-01
48 18 9.47877166595474607e-01
49 18 9.74585237549167926e-01
50 18 9.91773362669283842e-01
51 18 1.00000000000000000e+00
52 18 1.00000000000000000e+00
53 18 1.00000000000000000e+00
54 18 9.91773362669283731e-01
55 18 9.74585237549167926e-01
56 18 9.47877166595474718e-01
57 18 9.11323581875453259e-01
58 18 8.64879707778836160e-01
59 18 8.08813898564044620e-01
60 18 7.43718433538228973e-01
61 18 6.70495128834866283e-01
62 18 5.90315496922952931e-01
63 18 5.04558928522401251e-01
64 18 4.14735640377990544e-01
65 18 3.22403165741168174e-01
66 18 2.29085538991424087e-01
67 18 1.36203080274779648e-01
68 18 4.50182704578987181e-02
69 18 2.44929359829470641e-16
1 19 0.00000000000000000e+00
2 19 -4.43203127763806895e-02
3 19 -1.34091404611604570e-01
4 19 -2.25533825208611066e-01
5 19 -3.17404667047506472e-01
6 19 -4.08305630449649903e-01
7 19 -4.96736309475541982e-01
8 19 -5.81163318676085283e-01
9 19 -6.60099855519597045e-01
10 19 -7.32187915188798888e-01
11 19 -7.96274148198710674e-01
12 19 -8.51470720061335395e-01
13 19 -8.97194534094438167e-01
14 19 -9.33181396570738730e-01
15 19 -9.59475388904994619e-01
16 19 -9.76397031465108922e-01
17 19 -9.84496124031007613e-01
18 19 -9.84496124031007724e-01
19 19 -9.84496124031007613e-01
20 19 -9.76397031465108811e-01
21 19 -9.59475388904994619e-01
22 19 -9.33181396570738619e-01
23 19 -8.97194534094438501e-01
24 19 -8.51470720061334840e-01
25 19 -7.96274148198710674e-01
26 19 -7.32187915188798888e-01
27 19 -6.60099855519597045e-01
28 19 -5.81163318676085394e-01
29 19 -4.96736309475542037e-01
30 19 -4.08305630449649681e-01
31 19 -3.17404667047506528e-01
32 19 -2.25533825208611094e-01
33 19 -1.34091404611604625e-01
34 19 -4.43203127763807866e-02
35 19 -1.20566002706754955e-16
36 19 4.43203127763805993e-02
37 19 1.34091404611604376e-01
38 19 2.25533825208611066e-01
39 19 3.17404667047506472e-01
40 19 4.08305630449649903e-01
41 19 4.96736309475541982e-01
42 19 5.81163318676085283e-01
43 19 6.60099855519597045e-01
44 19 7.32187915188798888e-01
45 19 7.96274148198710674e-01
46 19 8.51470720061335395e-01
47 19 8.97194534094438167e-01
48 19 9.33181396570738730e-01
49 19 9.59475388904994619e-01
50 19 9.76397031465108922e-01
51 19 9.84496124031007613e-01
52 19 9.84496124031007724e-01
53 19 9.84496124031007613e-01
54 19 9.76397031465108811e-01
55 19 9.59475388904994619e-01
56 19 9.33181396570738619e-01
57 19 8.97194534094438501e-01
58 19 8.51470720061334840e-01
59 19 7.96274148198710674e-01
60 19 7.32187915188798888e-01
61 19 6.60099855519597045e-01
62 19 5.81163318676085394e-01
63 19 4.96736309475542259e-01
64 19 4.08305630449649681e-01
65 19 3.17404667047506694e-01
66 19 2.25533825208611260e-01
67 19 1.34091404611604764e-01
68 19 4.43203127763809185e-02
69 19 2.41132005413509911e-16
1 20 0.00000000000000000e+00
2 20 -4.29563649407428486e-02
3 20 -1.29964771254560518e-01
4 20 -2.18593071556702156e-01
5 20 -3.07636608531648870e-01
6 20 -3.95740114864495118e-01
7 20 -4.81449359277100197e-01
8 20 -5.63278145918848172e-01
9 20 -6.39785428277544255e-01
10 20 -7.09654993834187953e-01
11 20 -7.71768987179432098e-01
12 20 -8.25266896735531330e-01
13 20 -8.69583570491844426e-01
14 20 -9.04462945224689618e-01
15 20 -9.29947745753022748e-01
16 20 -9.46348628501225031e-01
17 20 -9.54198473282442783e-01
18 20 -9.54198473282442783e-01
19 20 -9.54198473282442783e-01
20 20 -9.46348628501225031e-01
21 20 -9.29947745753022748e-01
22 20 -9.04462945224689618e-01
23 20 -8.69583570491844648e-01
24 20 -8.25266896735530775e-01
25 20 -7.71768987179432209e-01
26 20 -7.09654993834187953e-01
27 20 -6.39785428277544255e-01
28 20 -5.63278145918848283e-01
29 20 -4.81449359277100197e-01
30 20 -3.95740114864494841e-01
31 20 -3.07636608531648925e-01
32 20 -2.18593071556702156e-01
33 20 -1.29964771254560574e-01
34 20 -4.29563649407429457e-02
35 20 -1.16855610605663482e-16
36 20 4.29563649407427584e-02
37 20 1.29964771254560379e-01
38 20 2.18593071556702156e-01
39 20 3.07636608531648870e-01
40 20 3.95740114864495118e-01
41 20 4.81449359277100197e-01
42 20 5.63278145918848172e-01
43 20 6.39785428277544255e-01
44 20 7.09654993834187953e-01
45 20 7.71768987179432098e-01
46 20 8.25266896735531330e-01
47 20 8.69583570491844426e-01
48 20 9.04462945224689618e-01
49 20 9.29947745753022748e-01
50 20 9.46348628501225031e-01
51 20 9.54198473282442783e-01
52 20 9.54198473282442783e-01
53 20 9.54198473282442783e-01
54 20 9.46348628501225031e-01
55 20 9.29947745753022748e-01
56 20 9.04462945224689618e-01
57 20 8.69583570491844648e-01
58 20 8.25266896735530775e-01
59 20 7.71768987179432209e-01
60 20 7.09654993834187953e-01
61 20 6.39785428277544255e-01
62 20 5.63278145918848283e-01
63 20 4.81449359277100419e-01
64 20 3.95740114864494841e-01
65 20 3.07636608531649036e-01
66 20 2.18593071556702351e-01
67 20 1.29964771254560713e-01
68 20 4.29563649407430637e-02
69 20 2.33711221211326964e-16
1 21 0.00000000000000000e+00
2 21 -4.09867835512210260e-02
3 21 -1.24005789503903646e-01
4 21 -2.08570416096669459e-01
5 21 -2.93531240450914221e-01
6 21 -3.77595135269514104e-01
7 21 -4.59374546863678512e-01
8 21 -5.37451422571643689e-01
9 21 -6.10450788939206568e-01
10 21 -6.77116782773611425e-01
11 21 -7.36382803170249844e-01
12 21 -7.87427793649388752e-01
13 21 -8.29712514841830284e-01
14 21 -8.62992644213790405e-01
15 21 -8.87308947619391608e-01
16 21 -9.02957837654123963e-01
17 21 -9.10447761194029814e-01
18 21 -9.10447761194029814e-01
19 21 -9.10447761194029814e-01
20 21 -9.02957837654123963e-01
21 21 -8.87308947619391608e-01
22 21 -8.62992644213790405e-01
23 21 -8.29712514841830617e-01
24 21 -7.87427793649388308e-01
25 21 -7.36382803170249844e-01
26 21 -6.77116782773611425e-01
27 21 -6.10450788939206568e-01
28 21 -5.37451422571643800e-01
29 21 -4.59374546863678512e-01
30 21 -3.77595135269513771e-01
31 21 -2.93531240450914166e-01
32 21 -2.08570416096669514e-01
33 21 -1.24005789503903702e-01
34 21 -4.09867835512211232e-02
35 21 -1.11497693653714259e-16
36 21 4.09867835512209358e-02
37 21 1.24005789503903521e-01
38 21 2.08570416096669459e-01
39 21 2.93531240450914221e-01
40 21 3.77595135269514104e-01
41 21 4.59374546863678512e-01
42 21 5.37451422571643689e-01
43 21 6.10450788939206568e-01
44 21 6.77116782773611425e-01
45 21 7.36382803170249844e-01
46 21 7.87427793649388752e-01
47 21 8.29712514841830284e-01
48 21 8.62992644213790405e-01
49 21 8.87308947619391608e-01
50 21 9.02957837654123963e-01
51 21 9.10447761194029814e-01
52 21 9.10447761194029814e-01
53 21 9.10447761194029814e-01
54 21 9.02957837654123963e-01
55 21 8.87308947619391608e-01
56 21 8.62992644213790405e-01
57 21 8.29712514841830617e-01
58 21 7.87427793649388308e-01
59 21 7.36382803170249844e-01
60 21 6.77116782773611425e-01
61 21 6.10450788939206568e-01
62 21 5.37451422571643800e-01
63 21 4.59374546863678623e-01
64 21 3.77595135269513771e-01
65 21 2.93531240450914388e-01
66 21 2.08570416096669708e-01
67 21 1.24005789503903854e-01
68 21 4.09867835512212342e-02
69 21 2.22995387307428519e-16
1 22 0.00000000000000000e+00
2 22 -3.84938834350146628e-02
3 22 -1.16463503423362105e-01
4 22 -1.95884736239043566e-01
5 22 -2.75678069256940828e-01
6 22 -3.54629025830456024e-01
7 22 -4.31434446127850146e-01
8 22 -5.04762526354409102e-01
9 22 -5.73321921757349418e-01
10 22 -6.35933153315297317e-01
11 22 -6.91594492975052821e-01
12 22 -7.39534822593498120e-01
13 22 -7.79247700444227864e-01
14 22 -8.10503664190333595e-01
15 22 -8.33341000223201456e-01
16 22 -8.48038092717213643e-01
17 22 -8.55072463768115965e-01
18 22 -8.55072463768115965e-01
19 22 -8.55072463768115965e-01
20 22 -8.48038092717213643e-01
21 22 -8.33341000223201456e-01
22 22 -8.10503664190333484e-01
23 22 -7.79247700444228197e-01
24 22 -7.39534822593497787e-01
25 22 -6.91594492975053043e-01
26 22 -6.35933153315297317e-01
27 22 -5.73321921757349418e-01
28 22 -5.04762526354409102e-01
29 22 -4.31434446127850091e-01
30 22 -3.54629025830455746e-01
31 22 -2.75678069256940828e-01
32 22 -1.95884736239043622e-01
33 22 -1.16463503423362175e-01
34 22 -3.84938834350147530e-02
35 22 -1.04716175579266444e-16
36 22 3.84938834350145795e-02
37 22 1.16463503423361994e-01
38 22 1.95884736239043566e-01
39 22 2.75678069256940828e-01
40 22 3.54629025830456024e-01
41 22 4.31434446127850146e-01
42 22 5.04762526354409102e-01
43 22 5.73321921757349418e-01
44 22 6.35933153315297317e-01
45 22 6.91594492975052821e-01
46 22 7.39534822593498120e-01
47 22 7.79247700444227864e-01
48 22 8.10503664190333595e-01
49 22 8.33341000223201456e-01
50 22 8.48038092717213643e-01
51 22 8.55072463768115965e-01
52 22 8.55072463768115965e-01
53 22 8.55072463768115965e-01
54 22 8.48038092717213643e-01
55 22 8.33341000223201456e-01
56 22 8.10503664190333484e-01
57 22 7.79247700444228197e-01
58 22 7.39534822593497787e-01
59 22 6.91594492975053043e-01
60 22 6.35933153315297317e-01
61 22 5.73321921757349418e-01
62 22 5.04762526354409102e-01
63 22 4.31434446127850202e-01
64 22 3.54629025830455746e-01
65 22 2.75678069256940994e-01
66 22 1.95884736239043789e-01
67 22 1.16463503423362313e-01
68 22 3.84938834350148570e-02
69 22 2.09432351158532888e-16
1 23 0.00000000000000000e+00
2 23 -3.55738780541435748e-02
3 23 -1.07629007489860637e-01
4 23 -1.81025635706509730e-01
5 23 -2.54766137963300665e-01
6 23 -3.27728163375615222e-01
7 23 -3.98707405056163033e-01
8 23 -4.66473084981074759e-01
9 23 -5.29831815093285918e-01
10 23 -5.87693587341397872e-01
11 23 -6.39132661103056443e-01
12 23 -6.83436412440619256e-01
13 23 -7.20136816447036310e-01
14 23 -7.49021816960060427e-01
15 23 -7.70126796105286338e-01
16 23 -7.83709020850552829e-01
17 23 -7.90209790209790208e-01
18 23 -7.90209790209790208e-01
19 23 -7.90209790209790208e-01
20 23 -7.83709020850552940e-01
21 23 -7.70126796105286338e-01
22 23 -7.49021816960060538e-01
23 23 -7.20136816447036532e-01
24 23 -6.83436412440618923e-01
25 23 -6.39132661103056665e-01
26 23 -5.87693587341397872e-01
27 23 -5.29831815093285918e-01
28 23 -4.66473084981074759e-01
29 23 -3.98707405056162978e-01
30 23 -3.27728163375615000e-01
31 23 -2.54766137963300665e-01
32 23 -1.81025635706509785e-01
33 23 -1.07629007489860734e-01
34 23 -3.55738780541436511e-02
35 23 -9.67727890235321038e-17
36 23 3.55738780541434915e-02
37 23 1.07629007489860554e-01
38 23 1.81025635706509730e-01
39 23 2.54766137963300665e-01
40 23 3.27728163375615222e-01
41 23 3.98707405056163033e-01
42 23 4.66473084981074759e-01
43 23 5.29831815093285918e-01
44 23 5.87693587341397872e-01
45 23 6.39132661103056443e-01
46 23 6.83436412440619256e-01
47 23 7.20136816447036310e-01
48 23 7.49021816960060427e-01
49 23 7.70126796105286338e-01
50 23 7.83709020850552829e-01
51 23 7.90209790209790208e-01
52 23 7.90209790209790208e-01
53 23 7.90209790209790208e-01
54 23 7.83709020850552940e-01
55 23 7.70126796105286338e-01
56 23 7.49021816960060538e-01
57 23 7.20136816447036532e-01
58 23 6.83436412440618923e-01
59 23 6.39132661103056665e-01
60 23 5.87693587341397872e-01
61 23 5.29831815093285918e-01
62 23 4.66473084981074759e-01
63 23 3.98707405056163089e-01
64 23 3.27728163375615000e-01
65 23 2.54766137963300832e-01
66 23 1.81025635706509980e-01
67 23 1.07629007489860845e-01
68 23 3.55738780541437483e-02
69 23 1.93545578047064208e-16
1 24 0.00000000000000000e+00
2 24 -3.23285566375512770e-02
3 24 -9.78102657006805071e-02
4 24 -1.64511091758941935e-01
5 24 -2.31524421035603917e-01
6 24 -2.97830292083523684e-01
7 24 -3.62334264106690673e-01
8 24 -4.23917840072187746e-01
9 24 -4.81496501914971009e-01
10 24 -5.34079680460339046e-01
11 24 -5.80826088230555593e-01
12 24 -6.21088112297553896e-01
13 24 -6.54440424568278334e-01
14 24 -6.80690314266548913e-01
15 24 -6.99869935689670708e-01
16 24 -7.12213085943713686e-01
17 24 -7.18120805369127702e-01
18 24 -7.18120805369127480e-01
19 24 -7.18120805369127702e-01
20 24 -7.12213085943713908e-01
21 24 -6.99869935689670597e-01
22 24 -6.80690314266549135e-01
23 24 -6.54440424568278667e-01
24 24 -6.21088112297553674e-01
25 24 -5.80826088230555926e-01
26 24 -5.34079680460339046e-01
27 24 -4.81496501914971009e-01
28 24 -4.23917840072187746e-01
29 24 -3.62334264106690562e-01
30 24 -2.97830292083523573e-01
31 24 -2.31524421035603917e-01
32 24 -1.64511091758941991e-01
33 24 -9.78102657006805903e-02
34 24 -3.23285566375513464e-02
35 24 -8.79444345696421302e-17
36 24 3.23285566375512007e-02
37 24 9.78102657006804377e-02
38 24 1.64511091758941935e-01
39 24 2.31524421035603917e-01
40 24 2.97830292083523684e-01
41 24 3.62334264106690673e-01
42 24 4.23917840072187746e-01
43 24 4.81496501914971009e-01
44 24 5.34079680460339046e-01
45 24 5.80826088230555593e-01
46 24 6.21088112297553896e-01
47 24 6.54440424568278334e-01
48 24 6.80690314266548913e-01
49 24 6.99869935689670708e-01
50 24 7.12213085943713686e-01
51 24 7.18120805369127702e-01
52 24 7.18120805369127480e-01
53 24 7.18120805369127702e-01
54 24 7.12213085943713908e-01
55 24 6.99869935689670597e-01
56 24 6.80690314266549135e-01
57 24 6.54440424568278667e-01
58 24 6.21088112297553674e-01
59 24 5.80826088230555926e-01
60 24 5.34079680460339046e-01
61 24 4.81496501914971009e-01
62 24 4.23917840072187746e-01
63 24 3.62334264106690729e-01
64 24 2.97830292083523573e-01
65 24 2.31524421035604056e-01
66 24 1.64511091758942157e-01
67 24 9.78102657006806736e-02
68 24 3.23285566375514366e-02
69 24 1.75888869139284260e-16
1 25 0.00000000000000000e+00
2 25 -2.88578656781400718e-02
3 25 -8.73096668428072903e-02
4 25 -1.46849704481681942e-01
5 25 -2.06668695987928253e-01
6 25 -2.65856179729481334e-01
7 25 -3.23435210591282718e-01
8 25 -3.78407369822405748e-01
9 25 -4.29804569765939892e-01
10 25 -4.76742585601428959e-01
11 25 -5.18470447797464540e-01
12 25 -5.54410069088997925e-01
13 25 -5.84181783253495568e-01
14 25 -6.07613568330432452e-01
15 25 -6.24734126634081788e-01
16 25 -6.35752155557233078e-01
17 25 -6.41025641025641302e-01
18 25 -6.41025641025640969e-01
19 25 -6.41025641025641302e-01
20 25 -6.35752155557233189e-01
21 25 -6.24734126634081677e-01
22 25 -6.07613568330432563e-01
23 25 -5.84181783253495790e-01
24 25 -5.54410069088997703e-01
25 25 -5.18470447797464762e-01
26 25 -4.76742585601428959e-01
27 25 -4.29804569765939892e-01
28 25 -3.78407369822405804e-01
29 25 -3.23435210591282662e-01
30 25 -2.65856179729481279e-01
31 25 -2.06668695987928280e-01
32 25 -1.46849704481681970e-01
33 25 -8.73096668428073874e-02
34 25 -2.88578656781401342e-02
35 25 -7.85029999453431518e-17
36 25 2.88578656781399989e-02
37 25 8.73096668428072487e-02
38 25 1.46849704481681942e-01
39 25 2.06668695987928253e-01
40 25 2.65856179729481334e-01
41 25 3.23435210591282718e-01
42 25 3.78407369822405748e-01
43 25 4.29804569765939892e-01
44 25 4.76742585601428959e-01
45 25 5.18470447797464540e-01
46 25 5.54410069088997925e-01
47 25 5.84181783253495568e-01
48 25 6.07613568330432452e-01
49 25 6.24734126634081788e-01
50 25 6.35752155557233078e-01
51 25 6.41025641025641302e-01
52 25 6.41025641025640969e-01
53 25 6.41025641025641302e-01
54 25 6.35752155557233189e-01
55 25 6.24734126634081677e-01
56 25 6.07613568330432563e-01
57 25 5.84181783253495790e-01
58 25 5.54410069088997703e-01
59 25 5.18470447797464762e-01
60 25 4.76742585601428959e-01
61 25 4.29804569765939892e-01
62 25 3.78407369822405804e-01
63 25 3.23435210591282774e-01
64 25 2.65856179729481279e-01
65 25 2.06668695987928364e-01
66 25 1.46849704481682136e-01
67 25 8.73096668428074568e-02
68 25 2.88578656781402140e-02
69 25 1.57005999890686304e-16
1 26 0.00000000000000000e+00
2 26 -2.52541517202845289e-02
3 26 -7.64066060078030657e-02
4 26 -1.28511399922018238e-01
5 26 -1.80860312488947961e-01
6 26 -2.32656578748629023e-01
7 26 -2.83045252585737150e-01
8 26 -3.31152595834827257e-01
9 26 -3.76131413736632336e-01
10 26 -4.17207901740957898e-01
11 26 -4.53724869926171392e-01
12 26 -4.85176421436908367e-01
13 26 -5.11230302027693262e-01
14 26 -5.31735971504778582e-01
15 26 -5.46718547893435436e-01
16 26 -5.56360666863256692e-01
17 26 -5.60975609756097726e-01
18 26 -5.60975609756097504e-01
19 26 -5.60975609756097726e-01
20 26 -5.56360666863256803e-01
21 26 -5.46718547893435436e-01
22 26 -5.31735971504778471e-01
23 26 -5.11230302027693373e-01
24 26 -4.85176421436908256e-01
25 26 -4.53724869926171503e-01
26 26 -4.17207901740957898e-01
27 26 -3.76131413736632336e-01
28 26 -3.31152595834827312e-01
29 26 -2.83045252585737095e-01
30 26 -2.32656578748629023e-01
31 26 -1.80860312488947961e-01
32 26 -1.28511399922018266e-01
33 26 -7.64066060078031489e-02
34 26 -2.52541517202845879e-02
35 26 -6.86996984887539616e-17
36 26 2.52541517202844665e-02
37 26 7.64066060078030379e-02
38 26 1.28511399922018238e-01
39 26 1.80860312488947961e-01
40 26 2.32656578748629023e-01
41 26 2.83045252585737150e-01
42 26 3.31152595834827257e-01
43 26 3.76131413736632336e-01
44 26 4.17207901740957898e-01
45 26 4.53724869926171392e-01
46 26 4.85176421436908367e-01
47 26 5.11230302027693262e-01
48 26 5.31735971504778582e-01
49 26 5.46718547893435436e-01
50 26 5.56360666863256692e-01
51 26 5.60975609756097726e-01
52 26 5.60975609756097504e-01
53 26 5.60975609756097726e-01
54 26 5.56360666863256803e-01
55 26 5.46718547893435436e-01
56 26 5.31735971504778471e-01
57 26 5.11230302027693373e-01
58 26 4.85176421436908256e-01
59 26 4.53724869926171503e-01
60 26 4.17207901740957898e-01
61 26 3.76131413736632336e-01
62 26 3.31152595834827312e-01
63 26 2.83045252585737206e-01
64 26 2.32656578748629023e-01
65 26 1.80860312488948100e-01
66 26 1.28511399922018404e-01
67 26 7.64066060078032183e-02
68 26 2.52541517202846538e-02
69 26 1.37399396977507923e-16
1 27 0.00000000000000000e+00
2 27 -2.15983609711304959e-02
3 27 -6.53459864902120602e-02
4 27 -1.09908090961203325e-01
5 27 -1.54678975471196273e-01
6 27 -1.98977214747822206e-01
7 27 -2.42071624666816670e-01
8 27 -2.83214949390780901e-01
9 27 -3.21682634065282635e-01
10 27 -3.56812890079034828e-01
11 27 -3.88043662316853832e-01
12 27 -4.14942287547071909e-01
13 27 -4.37224608645448654e-01
14 27 -4.54761877615169896e-01
15 27 -4.67575576396421388e-01
16 27 -4.75821902321101442e-01
17 27 -4.79768786127167668e-01
18 27 -4.79768786127167557e-01
19 27 -4.79768786127167668e-01
20 27 -4.75821902321101498e-01
21 27 -4.67575576396421388e-01
22 27 -4.54761877615169896e-01
23 27 -4.37224608645448709e-01
24 27 -4.14942287547071798e-01
25 27 -3.88043662316853943e-01
26 27 -3.56812890079034828e-01
27 27 -3.21682634065282635e-01
28 27 -2.83214949390780957e-01
29 27 -2.42071624666816643e-01
30 27 -1.98977214747822206e-01
31 27 -1.54678975471196273e-01
32 27 -1.09908090961203367e-01
33 27 -6.53459864902121434e-02
34 27 -2.15983609711305480e-02
35 27 -5.87547308261446947e-17
36 27 2.15983609711304439e-02
37 27 6.53459864902120463e-02
38 27 1.09908090961203325e-01
39 27 1.54678975471196273e-01
40 27 1.98977214747822206e-01
41 27 2.42071624666816670e-01
42 27 2.83214949390780901e-01
43 27 3.21682634065282635e-01
44 27 3.56812890079034828e-01
45 27 3.88043662316853832e-01
46 27 4.14942287547071909e-01
47 27 4.37224608645448654e-01
48 27 4.54761877615169896e-01
49 27 4.67575576396421388e-01
50 27 4.75821902321101442e-01
51 27 4.79768786127167668e-01
52 27 4.79768786127167557e-01
53 27 4.79768786127167668e-01
54 27 4.75821902321101498e-01
55 27 4.67575576396421388e-01
56 27 4.54761877615169896e-01
57 27 4.37224608645448709e-01
58 27 4.14942287547071798e-01
59 27 3.88043662316853943e-01
60 27 3.56812890079034828e-01
61 27 3.21682634065282635e-01
62 27 2.83214949390780957e-01
63 27 2.42071624666816726e-01
64 27 1.98977214747822206e-01
65 27 1.54678975471196356e-01
66 27 1.09908090961203464e-01
67 27 6.53459864902121990e-02
68 27 2.15983609711306035e-02
69 27 1.17509461652289389e-16
1 28 0.00000000000000000e+00
2 28 -1.79581078875769989e-02
3 28 -5.43323762844748273e-02
4 28 -9.13838488872892735e-02
5 28 -1.28608913109864886e-01
6 28 -1.65440993156247718e-01
7 28 -2.01272140885985107e-01
8 28 -2.35481045220631513e-01
9 28 -2.67465269972378294e-01
10 28 -2.96674566384102334e-01
11 28 -3.22641609809700969e-01
12 28 -3.45006659387186221e-01
13 28 -3.63533450693486748e-01
14 28 -3.78114935308577316e-01
15 28 -3.88768974541471191e-01
16 28 -3.95625439753320873e-01
17 28 -3.98907103825136611e-01
18 28 -3.98907103825136555e-01
19 28 -3.98907103825136611e-01
20 28 -3.95625439753320818e-01
21 28 -3.88768974541471135e-01
22 28 -3.78114935308577260e-01
23 28 -3.63533450693486804e-01
24 28 -3.45006659387186165e-01
25 28 -3.22641609809700969e-01
26 28 -2.96674566384102334e-01
27 28 -2.67465269972378350e-01
28 28 -2.35481045220631569e-01
29 28 -2.01272140885985107e-01
30 28 -1.65440993156247718e-01
31 28 -1.28608913109864886e-01
32 28 -9.13838488872893012e-02
33 28 -5.43323762844748967e-02
34 28 -1.79581078875770440e-02
35 28 -4.88520307856594359e-17
36 28 1.79581078875769573e-02
37 28 5.43323762844748065e-02
38 28 9.13838488872892735e-02
39 28 1.28608913109864886e-01
40 28 1.65440993156247718e-01
41 28 2.01272140885985107e-01
42 28 2.35481045220631513e-01
43 28 2.67465269972378294e-01
44 28 2.96674566384102334e-01
45 28 3.22641609809700969e-01
46 28 3.45006659387186221e-01
47 28 3.63533450693486748e-01
48 28 3.78114935308577316e-01
49 28 3.88768974541471191e-01
50 28 3.95625439753320873e-01
51 28 3.98907103825136611e-01
52 28 3.98907103825136555e-01
53 28 3.98907103825136611e-01
54 28 3.95625439753320818e-01
55 28 3.88768974541471135e-01
56 28 3.78114935308577260e-01
57 28 3.63533450693486804e-01
58 28 3.45006659387186165e-01
59 28 3.22641609809700969e-01
60 28 2.96674566384102334e-01
61 28 2.67465269972378350e-01
62 28 2.35481045220631596e-01
63 28 2.01272140885985162e-01
64 28 1.65440993156247718e-01
65 28 1.28608913109864942e-01
66 28 9.13838488872893845e-02
67 28 5.43323762844749383e-02
68 28 1.79581078875770891e-02
69 28 9.77040615713188717e-17
1 29 0.00000000000000000e+00
2 29 -1.43872823112871518e-02
3 29 -4.35288194692593847e-02
4 29 -7.32129042137540098e-02
5 29 -1.03036063278105258e-01
6 29 -1.32544379914615623e-01
7 29 -1.61250791589633319e-01
8 29 -1.88657529944448871e-01
9 29 -2.14281948390524196e-01
10 29 -2.37683210718403093e-01
11 29 -2.58486916035931880e-01
12 29 -2.76404855063339561e-01
13 29 -2.91247742661227271e-01
14 29 -3.02929816128450657e-01
15 29 -3.11465385196125766e-01
16 29 -3.16958497347915424e-01
17 29 -3.19587628865979412e-01
18 29 -3.19587628865979356e-01
19 29 -3.19587628865979412e-01
20 29 -3.16958497347915424e-01
21 29 -3.11465385196125710e-01
22 29 -3.02929816128450602e-01
23 29 -2.91247742661227327e-01
24 29 -2.76404855063339561e-01
25 29 -2.58486916035931824e-01
26 29 -2.37683210718403093e-01
27 29 -2.14281948390524252e-01
28 29 -1.88657529944448926e-01
29 29 -1.61250791589633319e-01
30 29 -1.32544379914615651e-01
31 29 -1.03036063278105286e-01
32 29 -7.32129042137540237e-02
33 29 -4.35288194692594402e-02
34 29 -1.43872823112871865e-02
35 29 -3.91381966737813825e-17
36 29 1.43872823112871154e-02
37 29 4.35288194692593708e-02
38 29 7.32129042137540098e-02
39 29 1.03036063278105258e-01
40 29 1.32544379914615623e-01
41 29 1.61250791589633319e-01
42 29 1.88657529944448871e-01
43 29 2.14281948390524196e-01
44 29 2.37683210718403093e-01
45 29 2.58486916035931880e-01
46 29 2.76404855063339561e-01
47 29 2.91247742661227271e-01
48 29 3.02929816128450657e-01
49 29 3.11465385196125766e-01
50 29 3.16958497347915424e-01
51 29 3.19587628865979412e-01
52 29 3.19587628865979356e-01
53 29 3.19587628865979412e-01
54 29 3.16958497347915424e-01
55 29 3.11465385196125710e-01
56 29 3.02929816128450602e-01
57 29 2.91247742661227327e-01
58 29 2.76404855063339561e-01
59 29 2.58486916035931824e-01
60 29 2.37683210718403093e-01
61 29 2.14281948390524252e-01
62 29 1.88657529944448982e-01
63 29 1.61250791589633374e-01
64 29 1.32544379914615651e-01
65 29 1.03036063278105328e-01
66 29 7.32129042137540931e-02
67 29 4.35288194692594679e-02
68 29 1.43872823112872229e-02
69 29 7.82763933475627649e-17
1 30 0.00000000000000000e+00
2 30 -1.09267646742472087e-02
3 30 -3.30590000666940165e-02
4 30 -5.56032861629669403e-02
5 30 -7.82531955682446712e-02
6 30 -1.00663990383007468e-01
7 30 -1.22465759350097333e-01
8 30 -1.43280460418192424e-01
9 30 -1.62741536124967445e-01
10 30 -1.80514182897628411e-01
11 30 -1.96314053049525428e-01
12 30 -2.09922259169620540e-01
13 30 -2.21195044144527453e-01
14 30 -2.30067273445503540e-01
15 30 -2.36549814939118391e-01
16 30 -2.40721689968272756e-01
17 30 -2.42718446601941751e-01
18 30 -2.42718446601941751e-01
19 30 -2.42718446601941751e-01
20 30 -2.40721689968272756e-01
21 30 -2.36549814939118336e-01
22 30 -2.30067273445503512e-01
23 30 -2.21195044144527508e-01
24 30 -2.09922259169620568e-01
25 30 -1.96314053049525372e-01
26 30 -1.80514182897628411e-01
27 30 -1.62741536124967501e-01
28 30 -1.43280460418192479e-01
29 30 -1.22465759350097333e-01
30 30 -1.00663990383007496e-01
31 30 -7.82531955682446850e-02
32 30 -5.56032861629669611e-02
33 30 -3.30590000666940581e-02
34 30 -1.09267646742472347e-02
35 30 -2.97244368725085691e-17
36 30 1.09267646742471827e-02
37 30 3.30590000666940095e-02
38 30 5.56032861629669403e-02
39 30 7.82531955682446712e-02
40 30 1.00663990383007468e-01
41 30 1.22465759350097333e-01
42 30 1.43280460418192424e-01
43 30 1.62741536124967445e-01
44 30 1.80514182897628411e-01
45 30 1.96314053049525428e-01
46 30 2.09922259169620540e-01
47 30 2.21195044144527453e-01
48 30 2.30067273445503540e-01
49 30 2.36549814939118391e-01
50 30 2.40721689968272756e-01
51 30 2.42718446601941751e-01
52 30 2.42718446601941751e-01
53 30 2.42718446601941751e-01
54 30 2.40721689968272756e-01
55 30 2.36549814939118336e-01
56 30 2.30067273445503512e-01
57 30 2.21195044144527508e-01
58 30 2.09922259169620568e-01
59 30 1.96314053049525372e-01
60 30 1.80514182897628411e-01
61 30 1.62741536124967501e-01
62 30 1.43280460418192535e-01
63 30 1.22465759350097375e-01
64 30 1.00663990383007496e-01
65 30 7.82531955682447128e-02
66 30 5.56032861629670166e-02
67 30 3.30590000666940859e-02
68 30 1.09267646742472659e-02
69 30 5.94488737450171382e-17
1 31 0.00000000000000000e+00
2 31 -7.60582651571801039e-03
3 31 -2.30114793158303008e-02
4 31 -3.87039495099665773e-02
5 31 -5.44699412439416317e-02
6 31 -7.00694917533591782e-02
7 31 -8.52451157777572438e-02
8 31 -9.97336684299052756e-02
9 31 -1.13279998935570961e-01
10 31 -1.25651059547554678e-01
11 31 -1.36648923501687947e-01
12 31 -1.46121229168113959e-01
13 31 -1.53967911093113086e-01
14 31 -1.60143630885993399e-01
15 31 -1.64655953375886815e-01
16 31 -1.67559883190700920e-01
17 31 -1.68949771689497708e-01
18 31 -1.68949771689497708e-01
19 31 -1.68949771689497708e-01
20 31 -1.67559883190700892e-01
21 31 -1.64655953375886760e-01
22 31 -1.60143630885993399e-01
23 31 -1.53967911093113113e-01
24 31 -1.46121229168113959e-01
25 31 -1.36648923501687891e-01
26 31 -1.25651059547554678e-01
27 31 -1.13279998935570989e-01
28 31 -9.97336684299053033e-02
29 31 -8.52451157777572577e-02
30 31 -7.00694917533591921e-02
31 31 -5.44699412439416386e-02
32 31 -3.87039495099665912e-02
33 31 -2.30114793158303320e-02
34 31 -7.60582651571803034e-03
35 31 -2.06903797116219485e-17
36 31 7.60582651571799391e-03
37 31 2.30114793158302938e-02
38 31 3.87039495099665773e-02
39 31 5.44699412439416317e-02
40 31 7.00694917533591782e-02
41 31 8.52451157777572438e-02
42 31 9.97336684299052756e-02
43 31 1.13279998935570961e-01
44 31 1.25651059547554678e-01
45 31 1.36648923501687947e-01
46 31 1.46121229168113959e-01
47 31 1.53967911093113086e-01
48 31 1.60143630885993399e-01
49 31 1.64655953375886815e-01
50 31 1.67559883190700920e-01
51 31 1.68949771689497708e-01
52 31 1.68949771689497708e-01
53 31 1.68949771689497708e-01
54 31 1.67559883190700892e-01
55 31 1.64655953375886760e-01
56 31 1.60143630885993399e-01
57 31 1.53967911093113113e-01
58 31 1.46121229168113959e-01
59 31 1.36648923501687891e-01
60 31 1.25651059547554678e-01
61 31 1.13279998935570989e-01
62 31 9.97336684299053311e-02
63 31 8.52451157777572854e-02
64 31 7.00694917533591921e-02
65 31 5.44699412439416664e-02
66 31 3.87039495099666328e-02
67 31 2.30114793158303493e-02
68 31 7.60582651571805029e-03
69 31 4.13807594232438970e-17
1 32 0.00000000000000000e+00
2 32 -4.44386360743204058e-03
3 32 -1.34449392545919547e-02
4 32 -2.26135939776941942e-02
5 32 -3.18252052019178736e-02
6 32 -4.09395696510463022e-02
7 32 -4.98062461631554668e-02
8 32 -5.82714868207206763e-02
9 32 -6.61862144343429853e-02
10 32 -7.34142659715848467e-02
11 32 -7.98399985706997051e-02
12 32 -8.53743917549924652e-02
13 32 -8.99589801851305715e-02
14 32 -9.35672739557764366e-02
15 32 -9.62036929769564952e-02
16 32 -9.79003748557662062e-02
17 32 -9.87124463519313267e-02
18 32 -9.87124463519313267e-02
19 32 -9.87124463519313267e-02
20 32 -9.79003748557661924e-02
21 32 -9.62036929769564814e-02
22 32 -9.35672739557764505e-02
23 32 -8.99589801851305715e-02
24 32 -8.53743917549924652e-02
25 32 -7.98399985706996912e-02
26 32 -7.34142659715848467e-02
27 32 -6.61862144343430131e-02
28 32 -5.82714868207206763e-02
29 32 -4.98062461631554598e-02
30 32 -4.09395696510463092e-02
31 32 -3.18252052019178805e-02
32 32 -2.26135939776942047e-02
33 32 -1.34449392545919703e-02
34 32 -4.44386360743205273e-03
35 32 -1.20887881460897531e-17
36 32 4.44386360743203018e-03
37 32 1.34449392545919512e-02
38 32 2.26135939776941942e-02
39 32 3.18252052019178736e-02
40 32 4.09395696510463022e-02
41 32 4.98062461631554668e-02
42 32 5.82714868207206763e-02
43 32 6.61862144343429853e-02
44 32 7.34142659715848467e-02
45 32 7.98399985706997051e-02
46 32 8.53743917549924652e-02
47 32 8.99589801851305715e-02
48 32 9.35672739557764366e-02
49 32 9.62036929769564952e-02
50 32 9.79003748557662062e-02
51 32 9.87124463519313267e-02
52 32 9.87124463519313267e-02
53 32 9.87124463519313267e-02
54 32 9.79003748557661924e-02
55 32 9.62036929769564814e-02
56 32 9.35672739557764505e-02
57 32 8.99589801851305715e-02
58 32 8.53743917549924652e-02
59 32 7.98399985706996912e-02
60 32 7.34142659715848467e-02
61 32 6.61862144343430131e-02
62 32 5.82714868207206901e-02
63 32 4.98062461631554876e-02
64 32 4.09395696510463161e-02
65 32 3.18252052019179013e-02
66 32 2.26135939776942255e-02
67 32 1.34449392545919841e-02
68 32 4.44386360743206400e-03
69 32 2.41775762921795062e-17
1 33 0.00000000000000000e+00
2 33 -1.45220227283543533e-03
3 33 -4.39364775079933469e-03
4 33 -7.38985609649754193e-03
5 33 -1.04001021206828401e-02
6 33 -1.33785690444513140e-02
7 33 -1.62760944684645463e-02
8 33 -1.90424353846113843e-02
9 33 -2.16288751237053538e-02
10 33 -2.39909172109106159e-02
11 33 -2.60907709214208000e-02
12 33 -2.78993454122205380e-02
13 33 -2.93975348992081657e-02
14 33 -3.05766827934024002e-02
15 33 -3.14382334693279961e-02
16 33 -3.19926891183639900e-02
17 33 -3.22580645161290314e-02
18 33 -3.22580645161290314e-02
19 33 -3.22580645161290314e-02
20 33 -3.19926891183639900e-02
21 33 -3.14382334693279961e-02
22 33 -3.05766827934024037e-02
23 33 -2.93975348992081692e-02
24 33 -2.78993454122205380e-02
25 33 -2.60907709214207931e-02
26 33 -2.39909172109106159e-02
27 33 -2.16288751237053573e-02
28 33 -1.90424353846113843e-02
29 33 -1.62760944684645498e-02
30 33 -1.33785690444513158e-02
31 33 -1.04001021206828401e-02
32 33 -7.38985609649754540e-03
33 33 -4.39364775079933902e-03
34 33 -1.45220227283543945e-03
35 33 -3.95047354563662307e-18
36 33 1.45220227283543207e-03
37 33 4.39364775079933382e-03
38 33 7.38985609649754193e-03
39 33 1.04001021206828401e-02
40 33 1.33785690444513140e-02
41 33 1.62760944684645463e-02
42 33 1.90424353846113843e-02
43 33 2.16288751237053538e-02
44 33 2.39909172109106159e-02
45 33 2.60907709214208000e-02
46 33 2.78993454122205380e-02
47 33 2.93975348992081657e-02
48 33 3.05766827934024002e-02
49 33 3.14382334693279961e-02
50 33 3.19926891183639900e-02
51 33 3.22580645161290314e-02
52 33 3.22580645161290314e-02
53 33 3.22580645161290314e-02
54 33 3.19926891183639900e-02
55 33 3.14382334693279961e-02
56 33 3.05766827934024037e-02
57 33 2.93975348992081692e-02
58 33 2.78993454122205380e-02
59 33 2.60907709214207931e-02
60 33 2.39909172109106159e-02
61 33 2.16288751237053573e-02
62 33 1.90424353846113878e-02
63 33 1.62760944684645567e-02
64 33 1.33785690444513210e-02
65 33 1.04001021206828470e-02
66 33 7.38985609649755060e-03
67 33 4.39364775079934336e-03
68 33 1.45220227283544335e-03
69 33 7.90094709127324615e-18
1 34 0.00000000000000000e+00
2 34 0.00000000000000000e+00
3 34 0.00000000000000000e+00
4 34 0.00000000000000000e+00
5 34 0.00000000000000000e+00
6 34 0.00000000000000000e+00
7 34 0.00000000000000000e+00
8 34 0.00000000000000000e+00
9 34 0.00000000000000000e+00
10 34 0.00000000000000000e+00
11 34 0.00000000000000000e+00
12 34 0.00000000000000000e+00
13 34 0.00000000000000000e+00
14 34 0.00000000000000000e+00
15 34 0.00000000000000000e+00
16 34 0.00000000000000000e+00
17 34 0.00000000000000000e+00
18 34 0.00000000000000000e+00
19 34 0.00000000000000000e+00
20 34 0.00000000000000000e+00
21 34 0.00000000000000000e+00
22 34 0.00000000000000000e+00
23 34 0.00000000000000000e+00
24 34 0.00000000000000000e+00
25 34 0.00000000000000000e+00
26 34 0.00000000000000000e+00
27 34 0.00000000000000000e+00
28 34 0.00000000000000000e+00
29 34 0.00000000000000000e+00
30 34 0.00000000000000000e+00
31 34 0.00000000000000000e+00
32 34 0.00000000000000000e+00
33 34 0.00000000000000000e+00
34 34 0.00000000000000000e+00
35 34 0.00000000000000000e+00
36 34 0.00000000000000000e+00
37 34 0.00000000000000000e+00
38 34 0.00000000000000000e+00
39 34 0.00000000000000000e+00
40 34 0.00000000000000000e+00
41 34 0.00000000000000000e+00
42 34 0.00000000000000000e+00
43 34 0.00000000000000000e+00
44 34 0.00000000000000000e+00
45 34 0.00000000000000000e+00
46 34 0.00000000000000000e+00
47 34 0.00000000000000000e+00
48 34 0.00000000000000000e+00
49 34 0.00000000000000000e+00
50 34 0.00000000000000000e+00
51 34 0.00000000000000000e+00
52 34 0.00000000000000000e+00
53 34 0.00000000000000000e+00
54 34 0.00000000000000000e+00
55 34 0.00000000000000000e+00
56 34 0.00000000000000000e+00
57 34 0.00000000000000000e+00
58 34 0.00000000000000000e+00
59 34 0.00000000000000000e+00
60 34 0.00000000000000000e+00
61 34 0.00000000000000000e+00
62 34 0.00000000000000000e+00
63 34 0.00000000000000000e+00
64 34 0.00000000000000000e+00
65 34 0.00000000000000000e+00
66 34 0.00000000000000000e+00
67 34 0.00000000000000000e+00
68 34 0.00000000000000000e+00
69 34 0.00000000000000000e+00
