%%MatrixMarket matrix coordinate  real general
69 34 2346
1 1 1.00000000000000000e+00
2 1 9.81694173824159244e-01
3 1 9.49658978016437949e-01
4 1 9.22200238752676649e-01
5 1 8.99317956032875676e-01
6 1 8.81012129857034920e-01
7 1 8.67282760225154270e-01
8 1 8.58129847137233837e-01
9 1 8.53553390593273731e-01
10 1 8.53553390593273731e-01
11 1 8.58129847137233948e-01
12 1 8.67282760225154492e-01
13 1 8.81012129857035142e-01
14 1 8.99317956032875898e-01
15 1 9.22200238752676760e-01
16 1 9.49658978016437838e-01
17 1 9.81694173824159244e-01
18 1 1.00000000000000000e+00
19 1 9.81694173824159244e-01
20 1 9.49658978016437949e-01
21 1 9.22200238752676649e-01
22 1 8.99317956032875676e-01
23 1 8.81012129857034920e-01
24 1 8.67282760225154270e-01
25 1 8.58129847137233837e-01
26 1 8.53553390593273731e-01
27 1 8.53553390593273731e-01
28 1 8.58129847137233948e-01
29 1 8.67282760225154492e-01
30 1 8.81012129857035142e-01
31 1 8.99317956032875898e-01
32 1 9.22200238752676760e-01
33 1 9.49658978016437838e-01
34 1 9.81694173824159244e-01
35 1 1.00000000000000000e+00
36 1 9.81694173824159244e-01
37 1 9.49658978016437949e-01
38 1 9.22200238752676649e-01
39 1 8.99317956032875676e-01
40 1 8.81012129857034920e-01
41 1 8.67282760225154270e-01
42 1 8.58129847137233837e-01
43 1 8.53553390593273731e-01
44 1 8.53553390593273731e-01
45 1 8.58129847137233948e-01
46 1 8.67282760225154492e-01
47 1 8.81012129857035142e-01
48 1 8.99317956032875898e-01
49 1 9.22200238752676760e-01
50 1 9.49658978016437838e-01
51 1 9.81694173824159244e-01
52 1 1.00000000000000000e+00
53 1 9.81694173824159244e-01
54 1 9.49658978016437949e-01
55 1 9.22200238752676649e-01
56 1 8.99317956032875676e-01
57 1 8.81012129857034920e-01
58 1 8.67282760225154270e-01
59 1 8.58129847137233837e-01
60 1 8.53553390593273731e-01
61 1 8.53553390593273731e-01
62 1 8.58129847137233948e-01
63 1 8.67282760225154492e-01
64 1 8.81012129857035142e-01
65 1 8.99317956032875898e-01
66 1 9.22200238752676760e-01
67 1 9.49658978016437838e-01
68 1 9.81694173824159244e-01
69 1 1.00000000000000000e+00
1 2 9.68750000000000000e-01
2 2 9.51016230892154368e-01
3 2 9.19982134953424291e-01
4 2 8.93381481291655621e-01
5 2 8.71214269906848360e-01
6 2 8.53480500799002728e-01
7 2 8.40180173968118282e-01
8 2 8.31313289414195355e-01
9 2 8.26879847137234059e-01
10 2 8.26879847137234059e-01
11 2 8.31313289414195467e-01
12 2 8.40180173968118504e-01
13 2 8.53480500799002728e-01
14 2 8.71214269906848582e-01
15 2 8.93381481291655621e-01
16 2 9.19982134953424291e-01
17 2 9.51016230892154368e-01
18 2 9.68750000000000000e-01
19 2 9.51016230892154368e-01
20 2 9.19982134953424291e-01
21 2 8.93381481291655621e-01
22 2 8.71214269906848360e-01
23 2 8.53480500799002728e-01
24 2 8.40180173968118282e-01
25 2 8.31313289414195355e-01
26 2 8.26879847137234059e-01
27 2 8.26879847137234059e-01
28 2 8.31313289414195467e-01
29 2 8.40180173968118504e-01
30 2 8.53480500799002728e-01
31 2 8.71214269906848582e-01
32 2 8.93381481291655621e-01
33 2 9.19982134953424291e-01
34 2 9.51016230892154368e-01
35 2 9.68750000000000000e-01
36 2 9.51016230892154368e-01
37 2 9.19982134953424291e-01
38 2 8.93381481291655621e-01
39 2 8.71214269906848360e-01
40 2 8.53480500799002728e-01
41 2 8.40180173968118282e-01
42 2 8.31313289414195355e-01
43 2 8.26879847137234059e-01
44 2 8.26879847137234059e-01
45 2 8.31313289414195467e-01
46 2 8.40180173968118504e-01
47 2 8.53480500799002728e-01
48 2 8.71214269906848582e-01
49 2 8.93381481291655621e-01
50 2 9.19982134953424291e-01
51 2 9.51016230892154368e-01
52 2 9.68750000000000000e-01
53 2 9.51016230892154368e-01
54 2 9.19982134953424291e-01
55 2 8.93381481291655621e-01
56 2 8.71214269906848360e-01
57 2 8.53480500799002728e-01
58 2 8.40180173968118282e-01
59 2 8.31313289414195355e-01
60 2 8.26879847137234059e-01
61 2 8.26879847137234059e-01
62 2 8.31313289414195467e-01
63 2 8.40180173968118504e-01
64 2 8.53480500799002728e-01
65 2 8.71214269906848582e-01
66 2 8.93381481291655621e-01
67 2 9.19982134953424291e-01
68 2 9.51016230892154368e-01
69 2 9.68750000000000000e-01
1 3 9.10156250000000000e-01
2 3 8.93495087894644935e-01
3 3 8.64338054210273765e-01
4 3 8.39346311052241001e-01
5 3 8.18519858420547086e-01
6 3 8.01858696315192132e-01
7 3 7.89362824736175694e-01
8 3 7.81032243683498106e-01
9 3 7.76866953157159368e-01
10 3 7.76866953157159368e-01
11 3 7.81032243683498106e-01
12 3 7.89362824736175805e-01
13 3 8.01858696315192132e-01
14 3 8.18519858420547308e-01
15 3 8.39346311052241001e-01
16 3 8.64338054210273654e-01
17 3 8.93495087894644935e-01
18 3 9.10156250000000000e-01
19 3 8.93495087894644935e-01
20 3 8.64338054210273765e-01
21 3 8.39346311052241001e-01
22 3 8.18519858420547086e-01
23 3 8.01858696315192132e-01
24 3 7.89362824736175694e-01
25 3 7.81032243683498106e-01
26 3 7.76866953157159368e-01
27 3 7.76866953157159368e-01
28 3 7.81032243683498106e-01
29 3 7.89362824736175805e-01
30 3 8.01858696315192132e-01
31 3 8.18519858420547308e-01
32 3 8.39346311052241001e-01
33 3 8.64338054210273654e-01
34 3 8.93495087894644935e-01
35 3 9.10156250000000000e-01
36 3 8.93495087894644935e-01
37 3 8.64338054210273765e-01
38 3 8.39346311052241001e-01
39 3 8.18519858420547086e-01
40 3 8.01858696315192132e-01
41 3 7.89362824736175694e-01
42 3 7.81032243683498106e-01
43 3 7.76866953157159368e-01
44 3 7.76866953157159368e-01
45 3 7.81032243683498106e-01
46 3 7.89362824736175805e-01
47 3 8.01858696315192132e-01
48 3 8.18519858420547308e-01
49 3 8.39346311052241001e-01
50 3 8.64338054210273654e-01
51 3 8.93495087894644935e-01
52 3 9.10156250000000000e-01
53 3 8.93495087894644935e-01
54 3 8.64338054210273765e-01
55 3 8.39346311052241001e-01
56 3 8.18519858420547086e-01
57 3 8.01858696315192132e-01
58 3 7.89362824736175694e-01
59 3 7.81032243683498106e-01
60 3 7.76866953157159368e-01
61 3 7.76866953157159368e-01
62 3 7.81032243683498106e-01
63 3 7.89362824736175805e-01
64 3 8.01858696315192132e-01
65 3 8.18519858420547308e-01
66 3 8.39346311052241001e-01
67 3 8.64338054210273654e-01
68 3 8.93495087894644935e-01
69 3 9.10156250000000000e-01
1 4 8.55468750000000000e-01
2 4 8.39808687763636152e-01
3 4 8.12403578849999697e-01
4 4 7.88913485495454037e-01
5 4 7.69338407699999061e-01
6 4 7.53678345463635435e-01
7 4 7.41933298786362494e-01
8 4 7.34103267668180681e-01
9 4 7.30188252109089775e-01
10 4 7.30188252109089775e-01
11 4 7.34103267668180681e-01
12 4 7.41933298786362716e-01
13 4 7.53678345463635546e-01
14 4 7.69338407699999283e-01
15 4 7.88913485495454037e-01
16 4 8.12403578849999697e-01
17 4 8.39808687763636152e-01
18 4 8.55468750000000000e-01
19 4 8.39808687763636152e-01
20 4 8.12403578849999697e-01
21 4 7.88913485495454037e-01
22 4 7.69338407699999061e-01
23 4 7.53678345463635435e-01
24 4 7.41933298786362494e-01
25 4 7.34103267668180681e-01
26 4 7.30188252109089775e-01
27 4 7.30188252109089775e-01
28 4 7.34103267668180681e-01
29 4 7.41933298786362716e-01
30 4 7.53678345463635546e-01
31 4 7.69338407699999283e-01
32 4 7.88913485495454037e-01
33 4 8.12403578849999697e-01
34 4 8.39808687763636152e-01
35 4 8.55468750000000000e-01
36 4 8.39808687763636152e-01
37 4 8.12403578849999697e-01
38 4 7.88913485495454037e-01
39 4 7.69338407699999061e-01
40 4 7.53678345463635435e-01
41 4 7.41933298786362494e-01
42 4 7.34103267668180681e-01
43 4 7.30188252109089775e-01
44 4 7.30188252109089775e-01
45 4 7.34103267668180681e-01
46 4 7.41933298786362716e-01
47 4 7.53678345463635546e-01
48 4 7.69338407699999283e-01
49 4 7.88913485495454037e-01
50 4 8.12403578849999697e-01
51 4 8.39808687763636152e-01
52 4 8.55468750000000000e-01
53 4 8.39808687763636152e-01
54 4 8.12403578849999697e-01
55 4 7.88913485495454037e-01
56 4 7.69338407699999061e-01
57 4 7.53678345463635435e-01
58 4 7.41933298786362494e-01
59 4 7.34103267668180681e-01
60 4 7.30188252109089775e-01
61 4 7.30188252109089775e-01
62 4 7.34103267668180681e-01
63 4 7.41933298786362716e-01
64 4 7.53678345463635546e-01
65 4 7.69338407699999283e-01
66 4 7.88913485495454037e-01
67 4 8.12403578849999697e-01
68 4 8.39808687763636152e-01
69 4 8.55468750000000000e-01
1 5 8.04687500000000000e-01
2 5 7.89957030499128132e-01
3 5 7.64178708872602419e-01
4 5 7.42083004621294617e-01
5 5 7.23669917745204616e-01
6 5 7.08939448244332859e-01
7 5 6.97891596118679014e-01
8 5 6.90526361368242969e-01
9 5 6.86843743993025058e-01
10 5 6.86843743993025058e-01
11 5 6.90526361368242969e-01
12 5 6.97891596118679125e-01
13 5 7.08939448244332970e-01
14 5 7.23669917745204838e-01
15 5 7.42083004621294728e-01
16 5 7.64178708872602419e-01
17 5 7.89957030499128132e-01
18 5 8.04687500000000000e-01
19 5 7.89957030499128132e-01
20 5 7.64178708872602419e-01
21 5 7.42083004621294617e-01
22 5 7.23669917745204616e-01
23 5 7.08939448244332859e-01
24 5 6.97891596118679014e-01
25 5 6.90526361368242969e-01
26 5 6.86843743993025058e-01
27 5 6.86843743993025058e-01
28 5 6.90526361368242969e-01
29 5 6.97891596118679125e-01
30 5 7.08939448244332970e-01
31 5 7.23669917745204838e-01
32 5 7.42083004621294728e-01
33 5 7.64178708872602419e-01
34 5 7.89957030499128132e-01
35 5 8.04687500000000000e-01
36 5 7.89957030499128132e-01
37 5 7.64178708872602419e-01
38 5 7.42083004621294617e-01
39 5 7.23669917745204616e-01
40 5 7.08939448244332859e-01
41 5 6.97891596118679014e-01
42 5 6.90526361368242969e-01
43 5 6.86843743993025058e-01
44 5 6.86843743993025058e-01
45 5 6.90526361368242969e-01
46 5 6.97891596118679125e-01
47 5 7.08939448244332970e-01
48 5 7.23669917745204838e-01
49 5 7.42083004621294728e-01
50 5 7.64178708872602419e-01
51 5 7.89957030499128132e-01
52 5 8.04687500000000000e-01
53 5 7.89957030499128132e-01
54 5 7.64178708872602419e-01
55 5 7.42083004621294617e-01
56 5 7.23669917745204616e-01
57 5 7.08939448244332859e-01
58 5 6.97891596118679014e-01
59 5 6.90526361368242969e-01
60 5 6.86843743993025058e-01
61 5 6.86843743993025058e-01
62 5 6.90526361368242969e-01
63 5 6.97891596118679125e-01
64 5 7.08939448244332970e-01
65 5 7.23669917745204838e-01
66 5 7.42083004621294728e-01
67 5 7.64178708872602419e-01
68 5 7.89957030499128132e-01
69 5 8.04687500000000000e-01
1 6 7.57812500000000000e-01
2 6 7.43940116101120763e-01
3 6 7.19663444278081821e-01
4 6 6.98854868429762854e-01
5 6 6.81514388556163642e-01
6 6 6.67642004657284294e-01
7 6 6.57237716733124921e-01
8 6 6.50301524783685081e-01
9 6 6.46833428808965438e-01
10 6 6.46833428808965438e-01
11 6 6.50301524783685081e-01
12 6 6.57237716733124921e-01
13 6 6.67642004657284405e-01
14 6 6.81514388556163864e-01
15 6 6.98854868429762965e-01
16 6 7.19663444278081821e-01
17 6 7.43940116101120763e-01
18 6 7.57812500000000000e-01
19 6 7.43940116101120763e-01
20 6 7.19663444278081821e-01
21 6 6.98854868429762854e-01
22 6 6.81514388556163642e-01
23 6 6.67642004657284294e-01
24 6 6.57237716733124921e-01
25 6 6.50301524783685081e-01
26 6 6.46833428808965438e-01
27 6 6.46833428808965438e-01
28 6 6.50301524783685081e-01
29 6 6.57237716733124921e-01
30 6 6.67642004657284405e-01
31 6 6.81514388556163864e-01
32 6 6.98854868429762965e-01
33 6 7.19663444278081821e-01
34 6 7.43940116101120763e-01
35 6 7.57812500000000000e-01
36 6 7.43940116101120763e-01
37 6 7.19663444278081821e-01
38 6 6.98854868429762854e-01
39 6 6.81514388556163642e-01
40 6 6.67642004657284294e-01
41 6 6.57237716733124921e-01
42 6 6.50301524783685081e-01
43 6 6.46833428808965438e-01
44 6 6.46833428808965438e-01
45 6 6.50301524783685081e-01
46 6 6.57237716733124921e-01
47 6 6.67642004657284405e-01
48 6 6.81514388556163864e-01
49 6 6.98854868429762965e-01
50 6 7.19663444278081821e-01
51 6 7.43940116101120763e-01
52 6 7.57812500000000000e-01
53 6 7.43940116101120763e-01
54 6 7.19663444278081821e-01
55 6 6.98854868429762854e-01
56 6 6.81514388556163642e-01
57 6 6.67642004657284294e-01
58 6 6.57237716733124921e-01
59 6 6.50301524783685081e-01
60 6 6.46833428808965438e-01
61 6 6.46833428808965438e-01
62 6 6.50301524783685081e-01
63 6 6.57237716733124921e-01
64 6 6.67642004657284405e-01
65 6 6.81514388556163864e-01
66 6 6.98854868429762965e-01
67 6 7.19663444278081821e-01
68 6 7.43940116101120763e-01
69 6 7.57812500000000000e-01
1 7 7.14843750000000000e-01
2 7 7.01757944569613823e-01
3 7 6.78857785066438013e-01
4 7 6.59229076920858748e-01
5 7 6.42871820132875915e-01
6 7 6.29786014702489738e-01
7 7 6.19971660629700216e-01
8 7 6.13428757914507017e-01
9 7 6.10157306556910584e-01
10 7 6.10157306556910584e-01
11 7 6.13428757914507017e-01
12 7 6.19971660629700327e-01
13 7 6.29786014702489849e-01
14 7 6.42871820132876137e-01
15 7 6.59229076920858859e-01
16 7 6.78857785066438013e-01
17 7 7.01757944569613823e-01
18 7 7.14843750000000000e-01
19 7 7.01757944569613823e-01
20 7 6.78857785066438013e-01
21 7 6.59229076920858748e-01
22 7 6.42871820132875915e-01
23 7 6.29786014702489738e-01
24 7 6.19971660629700216e-01
25 7 6.13428757914507017e-01
26 7 6.10157306556910584e-01
27 7 6.10157306556910584e-01
28 7 6.13428757914507017e-01
29 7 6.19971660629700327e-01
30 7 6.29786014702489849e-01
31 7 6.42871820132876137e-01
32 7 6.59229076920858859e-01
33 7 6.78857785066438013e-01
34 7 7.01757944569613823e-01
35 7 7.14843750000000000e-01
36 7 7.01757944569613823e-01
37 7 6.78857785066438013e-01
38 7 6.59229076920858748e-01
39 7 6.42871820132875915e-01
40 7 6.29786014702489738e-01
41 7 6.19971660629700216e-01
42 7 6.13428757914507017e-01
43 7 6.10157306556910584e-01
44 7 6.10157306556910584e-01
45 7 6.13428757914507017e-01
46 7 6.19971660629700327e-01
47 7 6.29786014702489849e-01
48 7 6.42871820132876137e-01
49 7 6.59229076920858859e-01
50 7 6.78857785066438013e-01
51 7 7.01757944569613823e-01
52 7 7.14843750000000000e-01
53 7 7.01757944569613823e-01
54 7 6.78857785066438013e-01
55 7 6.59229076920858748e-01
56 7 6.42871820132875915e-01
57 7 6.29786014702489738e-01
58 7 6.19971660629700216e-01
59 7 6.13428757914507017e-01
60 7 6.10157306556910584e-01
61 7 6.10157306556910584e-01
62 7 6.13428757914507017e-01
63 7 6.19971660629700327e-01
64 7 6.29786014702489849e-01
65 7 6.42871820132876137e-01
66 7 6.59229076920858859e-01
67 7 6.78857785066438013e-01
68 7 7.01757944569613823e-01
69 7 7.14843750000000000e-01
1 8 6.75781250000000000e-01
2 8 6.63410515904607534e-01
3 8 6.41761731237670885e-01
4 8 6.23205630094582297e-01
5 8 6.07742212475341659e-01
6 8 5.95371478379949304e-01
7 8 5.86093427808405121e-01
8 8 5.79908060760708777e-01
9 8 5.76815377236860827e-01
10 8 5.76815377236860827e-01
11 8 5.79908060760708777e-01
12 8 5.86093427808405232e-01
13 8 5.95371478379949415e-01
14 8 6.07742212475341881e-01
15 8 6.23205630094582408e-01
16 8 6.41761731237670885e-01
17 8 6.63410515904607534e-01
18 8 6.75781250000000000e-01
19 8 6.63410515904607534e-01
20 8 6.41761731237670885e-01
21 8 6.23205630094582297e-01
22 8 6.07742212475341659e-01
23 8 5.95371478379949304e-01
24 8 5.86093427808405121e-01
25 8 5.79908060760708777e-01
26 8 5.76815377236860827e-01
27 8 5.76815377236860827e-01
28 8 5.79908060760708777e-01
29 8 5.86093427808405232e-01
30 8 5.95371478379949415e-01
31 8 6.07742212475341881e-01
32 8 6.23205630094582408e-01
33 8 6.41761731237670885e-01
34 8 6.63410515904607534e-01
35 8 6.75781250000000000e-01
36 8 6.63410515904607534e-01
37 8 6.41761731237670885e-01
38 8 6.23205630094582297e-01
39 8 6.07742212475341659e-01
40 8 5.95371478379949304e-01
41 8 5.86093427808405121e-01
42 8 5.79908060760708777e-01
43 8 5.76815377236860827e-01
44 8 5.76815377236860827e-01
45 8 5.79908060760708777e-01
46 8 5.86093427808405232e-01
47 8 5.95371478379949415e-01
48 8 6.07742212475341881e-01
49 8 6.23205630094582408e-01
50 8 6.41761731237670885e-01
51 8 6.63410515904607534e-01
52 8 6.75781250000000000e-01
53 8 6.63410515904607534e-01
54 8 6.41761731237670885e-01
55 8 6.23205630094582297e-01
56 8 6.07742212475341659e-01
57 8 5.95371478379949304e-01
58 8 5.86093427808405121e-01
59 8 5.79908060760708777e-01
60 8 5.76815377236860827e-01
61 8 5.76815377236860827e-01
62 8 5.79908060760708777e-01
63 8 5.86093427808405232e-01
64 8 5.95371478379949415e-01
65 8 6.07742212475341881e-01
66 8 6.23205630094582408e-01
67 8 6.41761731237670885e-01
68 8 6.63410515904607534e-01
69 8 6.75781250000000000e-01
1 9 6.40625000000000000e-01
2 9 6.28897830106102007e-01
3 9 6.08375282791780547e-01
4 9 5.90784527950933502e-01
5 9 5.76125565583560872e-01
6 9 5.64398395689662991e-01
7 9 5.55603018269239524e-01
8 9 5.49739433322290472e-01
9 9 5.46807640848816057e-01
10 9 5.46807640848816057e-01
11 9 5.49739433322290472e-01
12 9 5.55603018269239635e-01
13 9 5.64398395689662991e-01
14 9 5.76125565583561094e-01
15 9 5.90784527950933613e-01
16 9 6.08375282791780436e-01
17 9 6.28897830106102007e-01
18 9 6.40625000000000000e-01
19 9 6.28897830106102007e-01
20 9 6.08375282791780547e-01
21 9 5.90784527950933502e-01
22 9 5.76125565583560872e-01
23 9 5.64398395689662991e-01
24 9 5.55603018269239524e-01
25 9 5.49739433322290472e-01
26 9 5.46807640848816057e-01
27 9 5.46807640848816057e-01
28 9 5.49739433322290472e-01
29 9 5.55603018269239635e-01
30 9 5.64398395689662991e-01
31 9 5.76125565583561094e-01
32 9 5.90784527950933613e-01
33 9 6.08375282791780436e-01
34 9 6.28897830106102007e-01
35 9 6.40625000000000000e-01
36 9 6.28897830106102007e-01
37 9 6.08375282791780547e-01
38 9 5.90784527950933502e-01
39 9 5.76125565583560872e-01
40 9 5.64398395689662991e-01
41 9 5.55603018269239524e-01
42 9 5.49739433322290472e-01
43 9 5.46807640848816057e-01
44 9 5.46807640848816057e-01
45 9 5.49739433322290472e-01
46 9 5.55603018269239635e-01
47 9 5.64398395689662991e-01
48 9 5.76125565583561094e-01
49 9 5.90784527950933613e-01
50 9 6.08375282791780436e-01
51 9 6.28897830106102007e-01
52 9 6.40625000000000000e-01
53 9 6.28897830106102007e-01
54 9 6.08375282791780547e-01
55 9 5.90784527950933502e-01
56 9 5.76125565583560872e-01
57 9 5.64398395689662991e-01
58 9 5.55603018269239524e-01
59 9 5.49739433322290472e-01
60 9 5.46807640848816057e-01
61 9 5.46807640848816057e-01
62 9 5.49739433322290472e-01
63 9 5.55603018269239635e-01
64 9 5.64398395689662991e-01
65 9 5.76125565583561094e-01
66 9 5.90784527950933613e-01
67 9 6.08375282791780436e-01
68 9 6.28897830106102007e-01
69 9 6.40625000000000000e-01
1 10 6.09375000000000000e-01
2 10 5.98219887174097131e-01
3 10 5.78698439728766889e-01
4 10 5.61965770489912364e-01
5 10 5.48021879457533556e-01
6 10 5.36866766631630687e-01
7 10 5.28500432012203425e-01
8 10 5.22922875599251991e-01
9 10 5.20134097392776273e-01
10 10 5.20134097392776273e-01
11 10 5.22922875599251991e-01
12 10 5.28500432012203536e-01
13 10 5.36866766631630687e-01
14 10 5.48021879457533778e-01
15 10 5.61965770489912475e-01
16 10 5.78698439728766778e-01
17 10 5.98219887174097131e-01
18 10 6.09375000000000000e-01
19 10 5.98219887174097131e-01
20 10 5.78698439728766889e-01
21 10 5.61965770489912364e-01
22 10 5.48021879457533556e-01
23 10 5.36866766631630687e-01
24 10 5.28500432012203425e-01
25 10 5.22922875599251991e-01
26 10 5.20134097392776273e-01
27 10 5.20134097392776273e-01
28 10 5.22922875599251991e-01
29 10 5.28500432012203536e-01
30 10 5.36866766631630687e-01
31 10 5.48021879457533778e-01
32 10 5.61965770489912475e-01
33 10 5.78698439728766778e-01
34 10 5.98219887174097131e-01
35 10 6.09375000000000000e-01
36 10 5.98219887174097131e-01
37 10 5.78698439728766889e-01
38 10 5.61965770489912364e-01
39 10 5.48021879457533556e-01
40 10 5.36866766631630687e-01
41 10 5.28500432012203425e-01
42 10 5.22922875599251991e-01
43 10 5.20134097392776273e-01
44 10 5.20134097392776273e-01
45 10 5.22922875599251991e-01
46 10 5.28500432012203536e-01
47 10 5.36866766631630687e-01
48 10 5.48021879457533778e-01
49 10 5.61965770489912475e-01
50 10 5.78698439728766778e-01
51 10 5.98219887174097131e-01
52 10 6.09375000000000000e-01
53 10 5.98219887174097131e-01
54 10 5.78698439728766889e-01
55 10 5.61965770489912364e-01
56 10 5.48021879457533556e-01
57 10 5.36866766631630687e-01
58 10 5.28500432012203425e-01
59 10 5.22922875599251991e-01
60 10 5.20134097392776273e-01
61 10 5.20134097392776273e-01
62 10 5.22922875599251991e-01
63 10 5.28500432012203536e-01
64 10 5.36866766631630687e-01
65 10 5.48021879457533778e-01
66 10 5.61965770489912475e-01
67 10 5.78698439728766778e-01
68 10 5.98219887174097131e-01
69 10 6.09375000000000000e-01
1 11 5.82031250000000000e-01
2 11 5.71376687108592796e-01
3 11 5.52731202048629910e-01
4 11 5.36749357711518882e-01
5 11 5.23431154097259599e-01
6 11 5.12776591205852394e-01
7 11 5.04785669037296825e-01
8 11 4.99458387591593223e-01
9 11 4.96794746868741477e-01
10 11 4.96794746868741477e-01
11 11 4.99458387591593223e-01
12 11 5.04785669037296936e-01
13 11 5.12776591205852394e-01
14 11 5.23431154097259821e-01
15 11 5.36749357711518882e-01
16 11 5.52731202048629799e-01
17 11 5.71376687108592796e-01
18 11 5.82031250000000000e-01
19 11 5.71376687108592796e-01
20 11 5.52731202048629910e-01
21 11 5.36749357711518882e-01
22 11 5.23431154097259599e-01
23 11 5.12776591205852394e-01
24 11 5.04785669037296825e-01
25 11 4.99458387591593223e-01
26 11 4.96794746868741477e-01
27 11 4.96794746868741477e-01
28 11 4.99458387591593223e-01
29 11 5.04785669037296936e-01
30 11 5.12776591205852394e-01
31 11 5.23431154097259821e-01
32 11 5.36749357711518882e-01
33 11 5.52731202048629799e-01
34 11 5.71376687108592796e-01
35 11 5.82031250000000000e-01
36 11 5.71376687108592796e-01
37 11 5.52731202048629910e-01
38 11 5.36749357711518882e-01
39 11 5.23431154097259599e-01
40 11 5.12776591205852394e-01
41 11 5.04785669037296825e-01
42 11 4.99458387591593223e-01
43 11 4.96794746868741477e-01
44 11 4.96794746868741477e-01
45 11 4.99458387591593223e-01
46 11 5.04785669037296936e-01
47 11 5.12776591205852394e-01
48 11 5.23431154097259821e-01
49 11 5.36749357711518882e-01
50 11 5.52731202048629799e-01
51 11 5.71376687108592796e-01
52 11 5.82031250000000000e-01
53 11 5.71376687108592796e-01
54 11 5.52731202048629910e-01
55 11 5.36749357711518882e-01
56 11 5.23431154097259599e-01
57 11 5.12776591205852394e-01
58 11 5.04785669037296825e-01
59 11 4.99458387591593223e-01
60 11 4.96794746868741477e-01
61 11 4.96794746868741477e-01
62 11 4.99458387591593223e-01
63 11 5.04785669037296936e-01
64 11 5.12776591205852394e-01
65 11 5.23431154097259821e-01
66 11 5.36749357711518882e-01
67 11 5.52731202048629799e-01
68 11 5.71376687108592796e-01
69 11 5.82031250000000000e-01
1 12 5.58593750000000000e-01
2 12 5.48368229909589111e-01
3 12 5.30473569751369611e-01
4 12 5.15135289615753056e-01
5 12 5.02353389502739112e-01
6 12 4.92127869412328167e-01
7 12 4.84458729344519778e-01
8 12 4.79345969299314334e-01
9 12 4.76789589276711667e-01
10 12 4.76789589276711667e-01
11 12 4.79345969299314334e-01
12 12 4.84458729344519945e-01
13 12 4.92127869412328223e-01
14 12 5.02353389502739334e-01
15 12 5.15135289615753056e-01
16 12 5.30473569751369611e-01
17 12 5.48368229909589111e-01
18 12 5.58593750000000000e-01
19 12 5.48368229909589111e-01
20 12 5.30473569751369611e-01
21 12 5.15135289615753056e-01
22 12 5.02353389502739112e-01
23 12 4.92127869412328167e-01
24 12 4.84458729344519778e-01
25 12 4.79345969299314334e-01
26 12 4.76789589276711667e-01
27 12 4.76789589276711667e-01
28 12 4.79345969299314334e-01
29 12 4.84458729344519945e-01
30 12 4.92127869412328223e-01
31 12 5.02353389502739334e-01
32 12 5.15135289615753056e-01
33 12 5.30473569751369611e-01
34 12 5.48368229909589111e-01
35 12 5.58593750000000000e-01
36 12 5.48368229909589111e-01
37 12 5.30473569751369611e-01
38 12 5.15135289615753056e-01
39 12 5.02353389502739112e-01
40 12 4.92127869412328167e-01
41 12 4.84458729344519778e-01
42 12 4.79345969299314334e-01
43 12 4.76789589276711667e-01
44 12 4.76789589276711667e-01
45 12 4.79345969299314334e-01
46 12 4.84458729344519945e-01
47 12 4.92127869412328223e-01
48 12 5.02353389502739334e-01
49 12 5.15135289615753056e-01
50 12 5.30473569751369611e-01
51 12 5.48368229909589111e-01
52 12 5.58593750000000000e-01
53 12 5.48368229909589111e-01
54 12 5.30473569751369611e-01
55 12 5.15135289615753056e-01
56 12 5.02353389502739112e-01
57 12 4.92127869412328167e-01
58 12 4.84458729344519778e-01
59 12 4.79345969299314334e-01
60 12 4.76789589276711667e-01
61 12 4.76789589276711667e-01
62 12 4.79345969299314334e-01
63 12 4.84458729344519945e-01
64 12 4.92127869412328223e-01
65 12 5.02353389502739334e-01
66 12 5.15135289615753056e-01
67 12 5.30473569751369611e-01
68 12 5.48368229909589111e-01
69 12 5.58593750000000000e-01
1 13 5.39062500000000000e-01
2 13 5.29194515577085967e-01
3 13 5.11925542836986103e-01
4 13 4.97123566202614886e-01
5 13 4.84788585673971983e-01
6 13 4.74920601251057950e-01
7 13 4.67519612933872231e-01
8 13 4.62585620722415214e-01
9 13 4.60118624616686733e-01
10 13 4.60118624616686733e-01
11 13 4.62585620722415214e-01
12 13 4.67519612933872342e-01
13 13 4.74920601251058061e-01
14 13 4.84788585673972261e-01
15 13 4.97123566202614886e-01
16 13 5.11925542836986103e-01
17 13 5.29194515577085967e-01
18 13 5.39062500000000000e-01
19 13 5.29194515577085967e-01
20 13 5.11925542836986103e-01
21 13 4.97123566202614886e-01
22 13 4.84788585673971983e-01
23 13 4.74920601251057950e-01
24 13 4.67519612933872231e-01
25 13 4.62585620722415214e-01
26 13 4.60118624616686733e-01
27 13 4.60118624616686733e-01
28 13 4.62585620722415214e-01
29 13 4.67519612933872342e-01
30 13 4.74920601251058061e-01
31 13 4.84788585673972261e-01
32 13 4.97123566202614886e-01
33 13 5.11925542836986103e-01
34 13 5.29194515577085967e-01
35 13 5.39062500000000000e-01
36 13 5.29194515577085967e-01
37 13 5.11925542836986103e-01
38 13 4.97123566202614886e-01
39 13 4.84788585673971983e-01
40 13 4.74920601251057950e-01
41 13 4.67519612933872231e-01
42 13 4.62585620722415214e-01
43 13 4.60118624616686733e-01
44 13 4.60118624616686733e-01
45 13 4.62585620722415214e-01
46 13 4.67519612933872342e-01
47 13 4.74920601251058061e-01
48 13 4.84788585673972261e-01
49 13 4.97123566202614886e-01
50 13 5.11925542836986103e-01
51 13 5.29194515577085967e-01
52 13 5.39062500000000000e-01
53 13 5.29194515577085967e-01
54 13 5.11925542836986103e-01
55 13 4.97123566202614886e-01
56 13 4.84788585673971983e-01
57 13 4.74920601251057950e-01
58 13 4.67519612933872231e-01
59 13 4.62585620722415214e-01
60 13 4.60118624616686733e-01
61 13 4.60118624616686733e-01
62 13 4.62585620722415214e-01
63 13 4.67519612933872342e-01
64 13 4.74920601251058061e-01
65 13 4.84788585673972261e-01
66 13 4.97123566202614886e-01
67 13 5.11925542836986103e-01
68 13 5.29194515577085967e-01
69 13 5.39062500000000000e-01
1 14 5.23437500000000000e-01
2 14 5.13855544111083473e-01
3 14 4.97087121305479274e-01
4 14 4.82714187472104317e-01
5 14 4.70736742610958325e-01
6 14 4.61154786722041798e-01
7 14 4.53968319805354237e-01
8 14 4.49177341860895973e-01
9 14 4.46781852888666842e-01
10 14 4.46781852888666842e-01
11 14 4.49177341860895973e-01
12 14 4.53968319805354292e-01
13 14 4.61154786722041965e-01
14 14 4.70736742610958547e-01
15 14 4.82714187472104317e-01
16 14 4.97087121305479274e-01
17 14 5.13855544111083473e-01
18 14 5.23437500000000000e-01
19 14 5.13855544111083473e-01
20 14 4.97087121305479274e-01
21 14 4.82714187472104317e-01
22 14 4.70736742610958325e-01
23 14 4.61154786722041798e-01
24 14 4.53968319805354237e-01
25 14 4.49177341860895973e-01
26 14 4.46781852888666842e-01
27 14 4.46781852888666842e-01
28 14 4.49177341860895973e-01
29 14 4.53968319805354292e-01
30 14 4.61154786722041965e-01
31 14 4.70736742610958547e-01
32 14 4.82714187472104317e-01
33 14 4.97087121305479274e-01
34 14 5.13855544111083473e-01
35 14 5.23437500000000000e-01
36 14 5.13855544111083473e-01
37 14 4.97087121305479274e-01
38 14 4.82714187472104317e-01
39 14 4.70736742610958325e-01
40 14 4.61154786722041798e-01
41 14 4.53968319805354237e-01
42 14 4.49177341860895973e-01
43 14 4.46781852888666842e-01
44 14 4.46781852888666842e-01
45 14 4.49177341860895973e-01
46 14 4.53968319805354292e-01
47 14 4.61154786722041965e-01
48 14 4.70736742610958547e-01
49 14 4.82714187472104317e-01
50 14 4.97087121305479274e-01
51 14 5.13855544111083473e-01
52 14 5.23437500000000000e-01
53 14 5.13855544111083473e-01
54 14 4.97087121305479274e-01
55 14 4.82714187472104317e-01
56 14 4.70736742610958325e-01
57 14 4.61154786722041798e-01
58 14 4.53968319805354237e-01
59 14 4.49177341860895973e-01
60 14 4.46781852888666842e-01
61 14 4.46781852888666842e-01
62 14 4.49177341860895973e-01
63 14 4.53968319805354292e-01
64 14 4.61154786722041965e-01
65 14 4.70736742610958547e-01
66 14 4.82714187472104317e-01
67 14 4.97087121305479274e-01
68 14 5.13855544111083473e-01
69 14 5.23437500000000000e-01
1 15 5.11718750000000000e-01
2 15 5.02351315511581520e-01
3 15 4.85958305156849124e-01
4 15 4.71907153424221348e-01
5 15 4.60197860313698026e-01
6 15 4.50830425825279657e-01
7 15 4.43804849958965686e-01
8 15 4.39121132714756501e-01
9 15 4.36779274092651937e-01
10 15 4.36779274092651937e-01
11 15 4.39121132714756501e-01
12 15 4.43804849958965741e-01
13 15 4.50830425825279768e-01
14 15 4.60197860313698248e-01
15 15 4.71907153424221348e-01
16 15 4.85958305156849124e-01
17 15 5.02351315511581520e-01
18 15 5.11718750000000000e-01
19 15 5.02351315511581520e-01
20 15 4.85958305156849124e-01
21 15 4.71907153424221348e-01
22 15 4.60197860313698026e-01
23 15 4.50830425825279657e-01
24 15 4.43804849958965686e-01
25 15 4.39121132714756501e-01
26 15 4.36779274092651937e-01
27 15 4.36779274092651937e-01
28 15 4.39121132714756501e-01
29 15 4.43804849958965741e-01
30 15 4.50830425825279768e-01
31 15 4.60197860313698248e-01
32 15 4.71907153424221348e-01
33 15 4.85958305156849124e-01
34 15 5.02351315511581520e-01
35 15 5.11718750000000000e-01
36 15 5.02351315511581520e-01
37 15 4.85958305156849124e-01
38 15 4.71907153424221348e-01
39 15 4.60197860313698026e-01
40 15 4.50830425825279657e-01
41 15 4.43804849958965686e-01
42 15 4.39121132714756501e-01
43 15 4.36779274092651937e-01
44 15 4.36779274092651937e-01
45 15 4.39121132714756501e-01
46 15 4.43804849958965741e-01
47 15 4.50830425825279768e-01
48 15 4.60197860313698248e-01
49 15 4.71907153424221348e-01
50 15 4.85958305156849124e-01
51 15 5.02351315511581520e-01
52 15 5.11718750000000000e-01
53 15 5.02351315511581520e-01
54 15 4.85958305156849124e-01
55 15 4.71907153424221348e-01
56 15 4.60197860313698026e-01
57 15 4.50830425825279657e-01
58 15 4.43804849958965686e-01
59 15 4.39121132714756501e-01
60 15 4.36779274092651937e-01
61 15 4.36779274092651937e-01
62 15 4.39121132714756501e-01
63 15 4.43804849958965741e-01
64 15 4.50830425825279768e-01
65 15 4.60197860313698248e-01
66 15 4.71907153424221348e-01
67 15 4.85958305156849124e-01
68 15 5.02351315511581520e-01
69 15 5.11718750000000000e-01
1 16 5.03906250000000000e-01
2 16 4.94681829778580218e-01
3 16 4.78539094391095654e-01
4 16 4.64702464058966036e-01
5 16 4.53171938782191197e-01
6 16 4.43947518560771526e-01
7 16 4.37029203394706689e-01
8 16 4.32416993283996853e-01
9 16 4.30110888228641963e-01
10 16 4.30110888228641963e-01
11 16 4.32416993283996853e-01
12 16 4.37029203394706744e-01
13 16 4.43947518560771692e-01
14 16 4.53171938782191364e-01
15 16 4.64702464058966036e-01
16 16 4.78539094391095654e-01
17 16 4.94681829778580218e-01
18 16 5.03906250000000000e-01
19 16 4.94681829778580218e-01
20 16 4.78539094391095654e-01
21 16 4.64702464058966036e-01
22 16 4.53171938782191197e-01
23 16 4.43947518560771526e-01
24 16 4.37029203394706689e-01
25 16 4.32416993283996853e-01
26 16 4.30110888228641963e-01
27 16 4.30110888228641963e-01
28 16 4.32416993283996853e-01
29 16 4.37029203394706744e-01
30 16 4.43947518560771692e-01
31 16 4.53171938782191364e-01
32 16 4.64702464058966036e-01
33 16 4.78539094391095654e-01
34 16 4.94681829778580218e-01
35 16 5.03906250000000000e-01
36 16 4.94681829778580218e-01
37 16 4.78539094391095654e-01
38 16 4.64702464058966036e-01
39 16 4.53171938782191197e-01
40 16 4.43947518560771526e-01
41 16 4.37029203394706689e-01
42 16 4.32416993283996853e-01
43 16 4.30110888228641963e-01
44 16 4.30110888228641963e-01
45 16 4.32416993283996853e-01
46 16 4.37029203394706744e-01
47 16 4.43947518560771692e-01
48 16 4.53171938782191364e-01
49 16 4.64702464058966036e-01
50 16 4.78539094391095654e-01
51 16 4.94681829778580218e-01
52 16 5.03906250000000000e-01
53 16 4.94681829778580218e-01
54 16 4.78539094391095654e-01
55 16 4.64702464058966036e-01
56 16 4.53171938782191197e-01
57 16 4.43947518560771526e-01
58 16 4.37029203394706689e-01
59 16 4.32416993283996853e-01
60 16 4.30110888228641963e-01
61 16 4.30110888228641963e-01
62 16 4.32416993283996853e-01
63 16 4.37029203394706744e-01
64 16 4.43947518560771692e-01
65 16 4.53171938782191364e-01
66 16 4.64702464058966036e-01
67 16 4.78539094391095654e-01
68 16 4.94681829778580218e-01
69 16 5.03906250000000000e-01
1 17 5.00000000000000000e-01
2 17 4.90847086912079622e-01
3 17 4.74829489008218975e-01
4 17 4.61100119376338380e-01
5 17 4.49658978016437783e-01
6 17 4.40506064928517516e-01
7 17 4.33641380112577191e-01
8 17 4.29064923568617029e-01
9 17 4.26776695296636976e-01
10 17 4.26776695296636976e-01
11 17 4.29064923568617029e-01
12 17 4.33641380112577246e-01
13 17 4.40506064928517682e-01
14 17 4.49658978016437949e-01
15 17 4.61100119376338380e-01
16 17 4.74829489008218975e-01
17 17 4.90847086912079622e-01
18 17 5.00000000000000000e-01
19 17 4.90847086912079622e-01
20 17 4.74829489008218975e-01
21 17 4.61100119376338380e-01
22 17 4.49658978016437783e-01
23 17 4.40506064928517516e-01
24 17 4.33641380112577191e-01
25 17 4.29064923568617029e-01
26 17 4.26776695296636976e-01
27 17 4.26776695296636976e-01
28 17 4.29064923568617029e-01
29 17 4.33641380112577246e-01
30 17 4.40506064928517682e-01
31 17 4.49658978016437949e-01
32 17 4.61100119376338380e-01
33 17 4.74829489008218975e-01
34 17 4.90847086912079622e-01
35 17 5.00000000000000000e-01
36 17 4.90847086912079622e-01
37 17 4.74829489008218975e-01
38 17 4.61100119376338380e-01
39 17 4.49658978016437783e-01
40 17 4.40506064928517516e-01
41 17 4.33641380112577191e-01
42 17 4.29064923568617029e-01
43 17 4.26776695296636976e-01
44 17 4.26776695296636976e-01
45 17 4.29064923568617029e-01
46 17 4.33641380112577246e-01
47 17 4.40506064928517682e-01
48 17 4.49658978016437949e-01
49 17 4.61100119376338380e-01
50 17 4.74829489008218975e-01
51 17 4.90847086912079622e-01
52 17 5.00000000000000000e-01
53 17 4.90847086912079622e-01
54 17 4.74829489008218975e-01
55 17 4.61100119376338380e-01
56 17 4.49658978016437783e-01
57 17 4.40506064928517516e-01
58 17 4.33641380112577191e-01
59 17 4.29064923568617029e-01
60 17 4.26776695296636976e-01
61 17 4.26776695296636976e-01
62 17 4.29064923568617029e-01
63 17 4.33641380112577246e-01
64 17 4.40506064928517682e-01
65 17 4.49658978016437949e-01
66 17 4.61100119376338380e-01
67 17 4.74829489008218975e-01
68 17 4.90847086912079622e-01
69 17 5.00000000000000000e-01
1 18 5.00000000000000000e-01
2 18 4.90847086912079678e-01
3 18 4.74829489008219030e-01
4 18 4.61100119376338380e-01
5 18 4.49658978016437783e-01
6 18 4.40506064928517516e-01
7 18 4.33641380112577246e-01
8 18 4.29064923568617029e-01
9 18 4.26776695296636976e-01
10 18 4.26776695296636976e-01
11 18 4.29064923568617029e-01
12 18 4.33641380112577302e-01
13 18 4.40506064928517738e-01
14 18 4.49658978016437949e-01
15 18 4.61100119376338380e-01
16 18 4.74829489008218975e-01
17 18 4.90847086912079678e-01
18 18 5.00000000000000000e-01
19 18 4.90847086912079678e-01
20 18 4.74829489008219030e-01
21 18 4.61100119376338380e-01
22 18 4.49658978016437783e-01
23 18 4.40506064928517516e-01
24 18 4.33641380112577246e-01
25 18 4.29064923568617029e-01
26 18 4.26776695296636976e-01
27 18 4.26776695296636976e-01
28 18 4.29064923568617029e-01
29 18 4.33641380112577302e-01
30 18 4.40506064928517738e-01
31 18 4.49658978016437949e-01
32 18 4.61100119376338380e-01
33 18 4.74829489008218975e-01
34 18 4.90847086912079678e-01
35 18 5.00000000000000000e-01
36 18 4.90847086912079678e-01
37 18 4.74829489008219030e-01
38 18 4.61100119376338380e-01
39 18 4.49658978016437783e-01
40 18 4.40506064928517516e-01
41 18 4.33641380112577246e-01
42 18 4.29064923568617029e-01
43 18 4.26776695296636976e-01
44 18 4.26776695296636976e-01
45 18 4.29064923568617029e-01
46 18 4.33641380112577302e-01
47 18 4.40506064928517738e-01
48 18 4.49658978016437949e-01
49 18 4.61100119376338380e-01
50 18 4.74829489008218975e-01
51 18 4.90847086912079678e-01
52 18 5.00000000000000000e-01
53 18 4.90847086912079678e-01
54 18 4.74829489008219030e-01
55 18 4.61100119376338380e-01
56 18 4.49658978016437783e-01
57 18 4.40506064928517516e-01
58 18 4.33641380112577246e-01
59 18 4.29064923568617029e-01
60 18 4.26776695296636976e-01
61 18 4.26776695296636976e-01
62 18 4.29064923568617029e-01
63 18 4.33641380112577302e-01
64 18 4.40506064928517738e-01
65 18 4.49658978016437949e-01
66 18 4.61100119376338380e-01
67 18 4.74829489008218975e-01
68 18 4.90847086912079678e-01
69 18 5.00000000000000000e-01
1 19 5.03906250000000000e-01
2 19 4.94681829778580329e-01
3 19 4.78539094391095710e-01
4 19 4.64702464058966092e-01
5 19 4.53171938782191308e-01
6 19 4.43947518560771526e-01
7 19 4.37029203394706744e-01
8 19 4.32416993283996853e-01
9 19 4.30110888228641963e-01
10 19 4.30110888228641963e-01
11 19 4.32416993283996853e-01
12 19 4.37029203394706856e-01
13 19 4.43947518560771748e-01
14 19 4.53171938782191419e-01
15 19 4.64702464058966092e-01
16 19 4.78539094391095710e-01
17 19 4.94681829778580329e-01
18 19 5.03906250000000000e-01
19 19 4.94681829778580329e-01
20 19 4.78539094391095710e-01
21 19 4.64702464058966092e-01
22 19 4.53171938782191308e-01
23 19 4.43947518560771526e-01
24 19 4.37029203394706744e-01
25 19 4.32416993283996853e-01
26 19 4.30110888228641963e-01
27 19 4.30110888228641963e-01
28 19 4.32416993283996853e-01
29 19 4.37029203394706856e-01
30 19 4.43947518560771748e-01
31 19 4.53171938782191419e-01
32 19 4.64702464058966092e-01
33 19 4.78539094391095710e-01
34 19 4.94681829778580329e-01
35 19 5.03906250000000000e-01
36 19 4.94681829778580329e-01
37 19 4.78539094391095710e-01
38 19 4.64702464058966092e-01
39 19 4.53171938782191308e-01
40 19 4.43947518560771526e-01
41 19 4.37029203394706744e-01
42 19 4.32416993283996853e-01
43 19 4.30110888228641963e-01
44 19 4.30110888228641963e-01
45 19 4.32416993283996853e-01
46 19 4.37029203394706856e-01
47 19 4.43947518560771748e-01
48 19 4.53171938782191419e-01
49 19 4.64702464058966092e-01
50 19 4.78539094391095710e-01
51 19 4.94681829778580329e-01
52 19 5.03906250000000000e-01
53 19 4.94681829778580329e-01
54 19 4.78539094391095710e-01
55 19 4.64702464058966092e-01
56 19 4.53171938782191308e-01
57 19 4.43947518560771526e-01
58 19 4.37029203394706744e-01
59 19 4.32416993283996853e-01
60 19 4.30110888228641963e-01
61 19 4.30110888228641963e-01
62 19 4.32416993283996853e-01
63 19 4.37029203394706856e-01
64 19 4.43947518560771748e-01
65 19 4.53171938782191419e-01
66 19 4.64702464058966092e-01
67 19 4.78539094391095710e-01
68 19 4.94681829778580329e-01
69 19 5.03906250000000000e-01
1 20 5.11718750000000000e-01
2 20 5.02351315511581520e-01
3 20 4.85958305156849124e-01
4 20 4.71907153424221348e-01
5 20 4.60197860313698137e-01
6 20 4.50830425825279602e-01
7 20 4.43804849958965741e-01
8 20 4.39121132714756390e-01
9 20 4.36779274092651826e-01
10 20 4.36779274092651826e-01
11 20 4.39121132714756501e-01
12 20 4.43804849958965852e-01
13 20 4.50830425825279879e-01
14 20 4.60197860313698248e-01
15 20 4.71907153424221348e-01
16 20 4.85958305156849124e-01
17 20 5.02351315511581520e-01
18 20 5.11718750000000000e-01
19 20 5.02351315511581520e-01
20 20 4.85958305156849124e-01
21 20 4.71907153424221348e-01
22 20 4.60197860313698137e-01
23 20 4.50830425825279602e-01
24 20 4.43804849958965741e-01
25 20 4.39121132714756390e-01
26 20 4.36779274092651826e-01
27 20 4.36779274092651826e-01
28 20 4.39121132714756501e-01
29 20 4.43804849958965852e-01
30 20 4.50830425825279879e-01
31 20 4.60197860313698248e-01
32 20 4.71907153424221348e-01
33 20 4.85958305156849124e-01
34 20 5.02351315511581520e-01
35 20 5.11718750000000000e-01
36 20 5.02351315511581520e-01
37 20 4.85958305156849124e-01
38 20 4.71907153424221348e-01
39 20 4.60197860313698137e-01
40 20 4.50830425825279602e-01
41 20 4.43804849958965741e-01
42 20 4.39121132714756390e-01
43 20 4.36779274092651826e-01
44 20 4.36779274092651826e-01
45 20 4.39121132714756501e-01
46 20 4.43804849958965852e-01
47 20 4.50830425825279879e-01
48 20 4.60197860313698248e-01
49 20 4.71907153424221348e-01
50 20 4.85958305156849124e-01
51 20 5.02351315511581520e-01
52 20 5.11718750000000000e-01
53 20 5.02351315511581520e-01
54 20 4.85958305156849124e-01
55 20 4.71907153424221348e-01
56 20 4.60197860313698137e-01
57 20 4.50830425825279602e-01
58 20 4.43804849958965741e-01
59 20 4.39121132714756390e-01
60 20 4.36779274092651826e-01
61 20 4.36779274092651826e-01
62 20 4.39121132714756501e-01
63 20 4.43804849958965852e-01
64 20 4.50830425825279879e-01
65 20 4.60197860313698248e-01
66 20 4.71907153424221348e-01
67 20 4.85958305156849124e-01
68 20 5.02351315511581520e-01
69 20 5.11718750000000000e-01
1 21 5.23437500000000000e-01
2 21 5.13855544111083362e-01
3 21 4.97087121305479274e-01
4 21 4.82714187472104261e-01
5 21 4.70736742610958436e-01
6 21 4.61154786722041743e-01
7 21 4.53968319805354292e-01
8 21 4.49177341860895862e-01
9 21 4.46781852888666786e-01
10 21 4.46781852888666786e-01
11 21 4.49177341860895973e-01
12 21 4.53968319805354459e-01
13 21 4.61154786722042020e-01
14 21 4.70736742610958547e-01
15 21 4.82714187472104261e-01
16 21 4.97087121305479274e-01
17 21 5.13855544111083362e-01
18 21 5.23437500000000000e-01
19 21 5.13855544111083362e-01
20 21 4.97087121305479274e-01
21 21 4.82714187472104261e-01
22 21 4.70736742610958436e-01
23 21 4.61154786722041743e-01
24 21 4.53968319805354292e-01
25 21 4.49177341860895862e-01
26 21 4.46781852888666786e-01
27 21 4.46781852888666786e-01
28 21 4.49177341860895973e-01
29 21 4.53968319805354459e-01
30 21 4.61154786722042020e-01
31 21 4.70736742610958547e-01
32 21 4.82714187472104261e-01
33 21 4.97087121305479274e-01
34 21 5.13855544111083362e-01
35 21 5.23437500000000000e-01
36 21 5.13855544111083362e-01
37 21 4.97087121305479274e-01
38 21 4.82714187472104261e-01
39 21 4.70736742610958436e-01
40 21 4.61154786722041743e-01
41 21 4.53968319805354292e-01
42 21 4.49177341860895862e-01
43 21 4.46781852888666786e-01
44 21 4.46781852888666786e-01
45 21 4.49177341860895973e-01
46 21 4.53968319805354459e-01
47 21 4.61154786722042020e-01
48 21 4.70736742610958547e-01
49 21 4.82714187472104261e-01
50 21 4.97087121305479274e-01
51 21 5.13855544111083362e-01
52 21 5.23437500000000000e-01
53 21 5.13855544111083362e-01
54 21 4.97087121305479274e-01
55 21 4.82714187472104261e-01
56 21 4.70736742610958436e-01
57 21 4.61154786722041743e-01
58 21 4.53968319805354292e-01
59 21 4.49177341860895862e-01
60 21 4.46781852888666786e-01
61 21 4.46781852888666786e-01
62 21 4.49177341860895973e-01
63 21 4.53968319805354459e-01
64 21 4.61154786722042020e-01
65 21 4.70736742610958547e-01
66 21 4.82714187472104261e-01
67 21 4.97087121305479274e-01
68 21 5.13855544111083362e-01
69 21 5.23437500000000000e-01
1 22 5.39062500000000000e-01
2 22 5.29194515577085856e-01
3 22 5.11925542836986103e-01
4 22 4.97123566202614886e-01
5 22 4.84788585673972094e-01
6 22 4.74920601251057950e-01
7 22 4.67519612933872342e-01
8 22 4.62585620722415158e-01
9 22 4.60118624616686678e-01
10 22 4.60118624616686678e-01
11 22 4.62585620722415325e-01
12 22 4.67519612933872564e-01
13 22 4.74920601251058172e-01
14 22 4.84788585673972205e-01
15 22 4.97123566202614886e-01
16 22 5.11925542836986103e-01
17 22 5.29194515577085856e-01
18 22 5.39062500000000000e-01
19 22 5.29194515577085856e-01
20 22 5.11925542836986103e-01
21 22 4.97123566202614886e-01
22 22 4.84788585673972094e-01
23 22 4.74920601251057950e-01
24 22 4.67519612933872342e-01
25 22 4.62585620722415158e-01
26 22 4.60118624616686678e-01
27 22 4.60118624616686678e-01
28 22 4.62585620722415325e-01
29 22 4.67519612933872564e-01
30 22 4.74920601251058172e-01
31 22 4.84788585673972205e-01
32 22 4.97123566202614886e-01
33 22 5.11925542836986103e-01
34 22 5.29194515577085856e-01
35 22 5.39062500000000000e-01
36 22 5.29194515577085856e-01
37 22 5.11925542836986103e-01
38 22 4.97123566202614886e-01
39 22 4.84788585673972094e-01
40 22 4.74920601251057950e-01
41 22 4.67519612933872342e-01
42 22 4.62585620722415158e-01
43 22 4.60118624616686678e-01
44 22 4.60118624616686678e-01
45 22 4.62585620722415325e-01
46 22 4.67519612933872564e-01
47 22 4.74920601251058172e-01
48 22 4.84788585673972205e-01
49 22 4.97123566202614886e-01
50 22 5.11925542836986103e-01
51 22 5.29194515577085856e-01
52 22 5.39062500000000000e-01
53 22 5.29194515577085856e-01
54 22 5.11925542836986103e-01
55 22 4.97123566202614886e-01
56 22 4.84788585673972094e-01
57 22 4.74920601251057950e-01
58 22 4.67519612933872342e-01
59 22 4.62585620722415158e-01
60 22 4.60118624616686678e-01
61 22 4.60118624616686678e-01
62 22 4.62585620722415325e-01
63 22 4.67519612933872564e-01
64 22 4.74920601251058172e-01
65 22 4.84788585673972205e-01
66 22 4.97123566202614886e-01
67 22 5.11925542836986103e-01
68 22 5.29194515577085856e-01
69 22 5.39062500000000000e-01
1 23 5.58593750000000000e-01
2 23 5.48368229909589000e-01
3 23 5.30473569751369611e-01
4 23 5.15135289615753056e-01
5 23 5.02353389502739112e-01
6 23 4.92127869412328112e-01
7 23 4.84458729344519834e-01
8 23 4.79345969299314223e-01
9 23 4.76789589276711556e-01
10 23 4.76789589276711556e-01
11 23 4.79345969299314389e-01
12 23 4.84458729344520111e-01
13 23 4.92127869412328334e-01
14 23 5.02353389502739223e-01
15 23 5.15135289615753056e-01
16 23 5.30473569751369611e-01
17 23 5.48368229909589000e-01
18 23 5.58593750000000000e-01
19 23 5.48368229909589000e-01
20 23 5.30473569751369611e-01
21 23 5.15135289615753056e-01
22 23 5.02353389502739112e-01
23 23 4.92127869412328112e-01
24 23 4.84458729344519834e-01
25 23 4.79345969299314223e-01
26 23 4.76789589276711556e-01
27 23 4.76789589276711556e-01
28 23 4.79345969299314389e-01
29 23 4.84458729344520111e-01
30 23 4.92127869412328334e-01
31 23 5.02353389502739223e-01
32 23 5.15135289615753056e-01
33 23 5.30473569751369611e-01
34 23 5.48368229909589000e-01
35 23 5.58593750000000000e-01
36 23 5.48368229909589000e-01
37 23 5.30473569751369611e-01
38 23 5.15135289615753056e-01
39 23 5.02353389502739112e-01
40 23 4.92127869412328112e-01
41 23 4.84458729344519834e-01
42 23 4.79345969299314223e-01
43 23 4.76789589276711556e-01
44 23 4.76789589276711556e-01
45 23 4.79345969299314389e-01
46 23 4.84458729344520111e-01
47 23 4.92127869412328334e-01
48 23 5.02353389502739223e-01
49 23 5.15135289615753056e-01
50 23 5.30473569751369611e-01
51 23 5.48368229909589000e-01
52 23 5.58593750000000000e-01
53 23 5.48368229909589000e-01
54 23 5.30473569751369611e-01
55 23 5.15135289615753056e-01
56 23 5.02353389502739112e-01
57 23 4.92127869412328112e-01
58 23 4.84458729344519834e-01
59 23 4.79345969299314223e-01
60 23 4.76789589276711556e-01
61 23 4.76789589276711556e-01
62 23 4.79345969299314389e-01
63 23 4.84458729344520111e-01
64 23 4.92127869412328334e-01
65 23 5.02353389502739223e-01
66 23 5.15135289615753056e-01
67 23 5.30473569751369611e-01
68 23 5.48368229909589000e-01
69 23 5.58593750000000000e-01
1 24 5.82031250000000111e-01
2 24 5.71376687108592685e-01
3 24 5.52731202048629910e-01
4 24 5.36749357711518993e-01
5 24 5.23431154097259599e-01
6 24 5.12776591205852394e-01
7 24 5.04785669037296825e-01
8 24 4.99458387591593111e-01
9 24 4.96794746868741477e-01
10 24 4.96794746868741477e-01
11 24 4.99458387591593334e-01
12 24 5.04785669037297158e-01
13 24 5.12776591205852506e-01
14 24 5.23431154097259821e-01
15 24 5.36749357711518993e-01
16 24 5.52731202048629910e-01
17 24 5.71376687108592685e-01
18 24 5.82031250000000111e-01
19 24 5.71376687108592685e-01
20 24 5.52731202048629910e-01
21 24 5.36749357711518993e-01
22 24 5.23431154097259599e-01
23 24 5.12776591205852394e-01
24 24 5.04785669037296825e-01
25 24 4.99458387591593111e-01
26 24 4.96794746868741477e-01
27 24 4.96794746868741477e-01
28 24 4.99458387591593334e-01
29 24 5.04785669037297158e-01
30 24 5.12776591205852506e-01
31 24 5.23431154097259821e-01
32 24 5.36749357711518993e-01
33 24 5.52731202048629910e-01
34 24 5.71376687108592685e-01
35 24 5.82031250000000111e-01
36 24 5.71376687108592685e-01
37 24 5.52731202048629910e-01
38 24 5.36749357711518993e-01
39 24 5.23431154097259599e-01
40 24 5.12776591205852394e-01
41 24 5.04785669037296825e-01
42 24 4.99458387591593111e-01
43 24 4.96794746868741477e-01
44 24 4.96794746868741477e-01
45 24 4.99458387591593334e-01
46 24 5.04785669037297158e-01
47 24 5.12776591205852506e-01
48 24 5.23431154097259821e-01
49 24 5.36749357711518993e-01
50 24 5.52731202048629910e-01
51 24 5.71376687108592685e-01
52 24 5.82031250000000111e-01
53 24 5.71376687108592685e-01
54 24 5.52731202048629910e-01
55 24 5.36749357711518993e-01
56 24 5.23431154097259599e-01
57 24 5.12776591205852394e-01
58 24 5.04785669037296825e-01
59 24 4.99458387591593111e-01
60 24 4.96794746868741477e-01
61 24 4.96794746868741477e-01
62 24 4.99458387591593334e-01
63 24 5.04785669037297158e-01
64 24 5.12776591205852506e-01
65 24 5.23431154097259821e-01
66 24 5.36749357711518993e-01
67 24 5.52731202048629910e-01
68 24 5.71376687108592685e-01
69 24 5.82031250000000111e-01
1 25 6.09375000000000111e-01
2 25 5.98219887174097020e-01
3 25 5.78698439728766889e-01
4 25 5.61965770489912475e-01
5 25 5.48021879457533556e-01
6 25 5.36866766631630687e-01
7 25 5.28500432012203425e-01
8 25 5.22922875599251880e-01
9 25 5.20134097392776273e-01
10 25 5.20134097392776273e-01
11 25 5.22922875599252102e-01
12 25 5.28500432012203647e-01
13 25 5.36866766631630798e-01
14 25 5.48021879457533778e-01
15 25 5.61965770489912586e-01
16 25 5.78698439728766889e-01
17 25 5.98219887174097020e-01
18 25 6.09375000000000111e-01
19 25 5.98219887174097020e-01
20 25 5.78698439728766889e-01
21 25 5.61965770489912475e-01
22 25 5.48021879457533556e-01
23 25 5.36866766631630687e-01
24 25 5.28500432012203425e-01
25 25 5.22922875599251880e-01
26 25 5.20134097392776273e-01
27 25 5.20134097392776273e-01
28 25 5.22922875599252102e-01
29 25 5.28500432012203647e-01
30 25 5.36866766631630798e-01
31 25 5.48021879457533778e-01
32 25 5.61965770489912586e-01
33 25 5.78698439728766889e-01
34 25 5.98219887174097020e-01
35 25 6.09375000000000111e-01
36 25 5.98219887174097020e-01
37 25 5.78698439728766889e-01
38 25 5.61965770489912475e-01
39 25 5.48021879457533556e-01
40 25 5.36866766631630687e-01
41 25 5.28500432012203425e-01
42 25 5.22922875599251880e-01
43 25 5.20134097392776273e-01
44 25 5.20134097392776273e-01
45 25 5.22922875599252102e-01
46 25 5.28500432012203647e-01
47 25 5.36866766631630798e-01
48 25 5.48021879457533778e-01
49 25 5.61965770489912586e-01
50 25 5.78698439728766889e-01
51 25 5.98219887174097020e-01
52 25 6.09375000000000111e-01
53 25 5.98219887174097020e-01
54 25 5.78698439728766889e-01
55 25 5.61965770489912475e-01
56 25 5.48021879457533556e-01
57 25 5.36866766631630687e-01
58 25 5.28500432012203425e-01
59 25 5.22922875599251880e-01
60 25 5.20134097392776273e-01
61 25 5.20134097392776273e-01
62 25 5.22922875599252102e-01
63 25 5.28500432012203647e-01
64 25 5.36866766631630798e-01
65 25 5.48021879457533778e-01
66 25 5.61965770489912586e-01
67 25 5.78698439728766889e-01
68 25 5.98219887174097020e-01
69 25 6.09375000000000111e-01
1 26 6.40625000000000111e-01
2 26 6.28897830106102007e-01
3 26 6.08375282791780547e-01
4 26 5.90784527950933613e-01
5 26 5.76125565583560983e-01
6 26 5.64398395689663102e-01
7 26 5.55603018269239524e-01
8 26 5.49739433322290472e-01
9 26 5.46807640848816057e-01
10 26 5.46807640848816057e-01
11 26 5.49739433322290694e-01
12 26 5.55603018269239746e-01
13 26 5.64398395689663102e-01
14 26 5.76125565583561094e-01
15 26 5.90784527950933724e-01
16 26 6.08375282791780547e-01
17 26 6.28897830106102007e-01
18 26 6.40625000000000111e-01
19 26 6.28897830106102007e-01
20 26 6.08375282791780547e-01
21 26 5.90784527950933613e-01
22 26 5.76125565583560983e-01
23 26 5.64398395689663102e-01
24 26 5.55603018269239524e-01
25 26 5.49739433322290472e-01
26 26 5.46807640848816057e-01
27 26 5.46807640848816057e-01
28 26 5.49739433322290694e-01
29 26 5.55603018269239746e-01
30 26 5.64398395689663102e-01
31 26 5.76125565583561094e-01
32 26 5.90784527950933724e-01
33 26 6.08375282791780547e-01
34 26 6.28897830106102007e-01
35 26 6.40625000000000111e-01
36 26 6.28897830106102007e-01
37 26 6.08375282791780547e-01
38 26 5.90784527950933613e-01
39 26 5.76125565583560983e-01
40 26 5.64398395689663102e-01
41 26 5.55603018269239524e-01
42 26 5.49739433322290472e-01
43 26 5.46807640848816057e-01
44 26 5.46807640848816057e-01
45 26 5.49739433322290694e-01
46 26 5.55603018269239746e-01
47 26 5.64398395689663102e-01
48 26 5.76125565583561094e-01
49 26 5.90784527950933724e-01
50 26 6.08375282791780547e-01
51 26 6.28897830106102007e-01
52 26 6.40625000000000111e-01
53 26 6.28897830106102007e-01
54 26 6.08375282791780547e-01
55 26 5.90784527950933613e-01
56 26 5.76125565583560983e-01
57 26 5.64398395689663102e-01
58 26 5.55603018269239524e-01
59 26 5.49739433322290472e-01
60 26 5.46807640848816057e-01
61 26 5.46807640848816057e-01
62 26 5.49739433322290694e-01
63 26 5.55603018269239746e-01
64 26 5.64398395689663102e-01
65 26 5.76125565583561094e-01
66 26 5.90784527950933724e-01
67 26 6.08375282791780547e-01
68 26 6.28897830106102007e-01
69 26 6.40625000000000111e-01
1 27 6.75781250000000111e-01
2 27 6.63410515904607645e-01
3 27 6.41761731237670996e-01
4 27 6.23205630094582408e-01
5 27 6.07742212475341659e-01
6 27 5.95371478379949415e-01
7 27 5.86093427808405121e-01
8 27 5.79908060760708777e-01
9 27 5.76815377236860827e-01
10 27 5.76815377236860827e-01
11 27 5.79908060760708999e-01
12 27 5.86093427808405232e-01
13 27 5.95371478379949415e-01
14 27 6.07742212475341881e-01
15 27 6.23205630094582519e-01
16 27 6.41761731237670885e-01
17 27 6.63410515904607645e-01
18 27 6.75781250000000111e-01
19 27 6.63410515904607645e-01
20 27 6.41761731237670996e-01
21 27 6.23205630094582408e-01
22 27 6.07742212475341659e-01
23 27 5.95371478379949415e-01
24 27 5.86093427808405121e-01
25 27 5.79908060760708777e-01
26 27 5.76815377236860827e-01
27 27 5.76815377236860827e-01
28 27 5.79908060760708999e-01
29 27 5.86093427808405232e-01
30 27 5.95371478379949415e-01
31 27 6.07742212475341881e-01
32 27 6.23205630094582519e-01
33 27 6.41761731237670885e-01
34 27 6.63410515904607645e-01
35 27 6.75781250000000111e-01
36 27 6.63410515904607645e-01
37 27 6.41761731237670996e-01
38 27 6.23205630094582408e-01
39 27 6.07742212475341659e-01
40 27 5.95371478379949415e-01
41 27 5.86093427808405121e-01
42 27 5.79908060760708777e-01
43 27 5.76815377236860827e-01
44 27 5.76815377236860827e-01
45 27 5.79908060760708999e-01
46 27 5.86093427808405232e-01
47 27 5.95371478379949415e-01
48 27 6.07742212475341881e-01
49 27 6.23205630094582519e-01
50 27 6.41761731237670885e-01
51 27 6.63410515904607645e-01
52 27 6.75781250000000111e-01
53 27 6.63410515904607645e-01
54 27 6.41761731237670996e-01
55 27 6.23205630094582408e-01
56 27 6.07742212475341659e-01
57 27 5.95371478379949415e-01
58 27 5.86093427808405121e-01
59 27 5.79908060760708777e-01
60 27 5.76815377236860827e-01
61 27 5.76815377236860827e-01
62 27 5.79908060760708999e-01
63 27 5.86093427808405232e-01
64 27 5.95371478379949415e-01
65 27 6.07742212475341881e-01
66 27 6.23205630094582519e-01
67 27 6.41761731237670885e-01
68 27 6.63410515904607645e-01
69 27 6.75781250000000111e-01
1 28 7.14843750000000111e-01
2 28 7.01757944569613823e-01
3 28 6.78857785066438124e-01
4 28 6.59229076920858859e-01
5 28 6.42871820132875915e-01
6 28 6.29786014702489849e-01
7 28 6.19971660629700216e-01
8 28 6.13428757914507017e-01
9 28 6.10157306556910584e-01
10 28 6.10157306556910584e-01
11 28 6.13428757914507239e-01
12 28 6.19971660629700327e-01
13 28 6.29786014702489960e-01
14 28 6.42871820132876137e-01
15 28 6.59229076920859081e-01
16 28 6.78857785066438013e-01
17 28 7.01757944569613823e-01
18 28 7.14843750000000111e-01
19 28 7.01757944569613823e-01
20 28 6.78857785066438124e-01
21 28 6.59229076920858859e-01
22 28 6.42871820132875915e-01
23 28 6.29786014702489849e-01
24 28 6.19971660629700216e-01
25 28 6.13428757914507017e-01
26 28 6.10157306556910584e-01
27 28 6.10157306556910584e-01
28 28 6.13428757914507239e-01
29 28 6.19971660629700327e-01
30 28 6.29786014702489960e-01
31 28 6.42871820132876137e-01
32 28 6.59229076920859081e-01
33 28 6.78857785066438013e-01
34 28 7.01757944569613823e-01
35 28 7.14843750000000111e-01
36 28 7.01757944569613823e-01
37 28 6.78857785066438124e-01
38 28 6.59229076920858859e-01
39 28 6.42871820132875915e-01
40 28 6.29786014702489849e-01
41 28 6.19971660629700216e-01
42 28 6.13428757914507017e-01
43 28 6.10157306556910584e-01
44 28 6.10157306556910584e-01
45 28 6.13428757914507239e-01
46 28 6.19971660629700327e-01
47 28 6.29786014702489960e-01
48 28 6.42871820132876137e-01
49 28 6.59229076920859081e-01
50 28 6.78857785066438013e-01
51 28 7.01757944569613823e-01
52 28 7.14843750000000111e-01
53 28 7.01757944569613823e-01
54 28 6.78857785066438124e-01
55 28 6.59229076920858859e-01
56 28 6.42871820132875915e-01
57 28 6.29786014702489849e-01
58 28 6.19971660629700216e-01
59 28 6.13428757914507017e-01
60 28 6.10157306556910584e-01
61 28 6.10157306556910584e-01
62 28 6.13428757914507239e-01
63 28 6.19971660629700327e-01
64 28 6.29786014702489960e-01
65 28 6.42871820132876137e-01
66 28 6.59229076920859081e-01
67 28 6.78857785066438013e-01
68 28 7.01757944569613823e-01
69 28 7.14843750000000111e-01
1 29 7.57812500000000000e-01
2 29 7.43940116101120652e-01
3 29 7.19663444278081932e-01
4 29 6.98854868429762854e-01
5 29 6.81514388556163531e-01
6 29 6.67642004657284294e-01
7 29 6.57237716733124699e-01
8 29 6.50301524783685081e-01
9 29 6.46833428808965327e-01
10 29 6.46833428808965327e-01
11 29 6.50301524783685192e-01
12 29 6.57237716733124921e-01
13 29 6.67642004657284405e-01
14 29 6.81514388556163753e-01
15 29 6.98854868429763076e-01
16 29 7.19663444278081821e-01
17 29 7.43940116101120652e-01
18 29 7.57812500000000000e-01
19 29 7.43940116101120652e-01
20 29 7.19663444278081932e-01
21 29 6.98854868429762854e-01
22 29 6.81514388556163531e-01
23 29 6.67642004657284294e-01
24 29 6.57237716733124699e-01
25 29 6.50301524783685081e-01
26 29 6.46833428808965327e-01
27 29 6.46833428808965327e-01
28 29 6.50301524783685192e-01
29 29 6.57237716733124921e-01
30 29 6.67642004657284405e-01
31 29 6.81514388556163753e-01
32 29 6.98854868429763076e-01
33 29 7.19663444278081821e-01
34 29 7.43940116101120652e-01
35 29 7.57812500000000000e-01
36 29 7.43940116101120652e-01
37 29 7.19663444278081932e-01
38 29 6.98854868429762854e-01
39 29 6.81514388556163531e-01
40 29 6.67642004657284294e-01
41 29 6.57237716733124699e-01
42 29 6.50301524783685081e-01
43 29 6.46833428808965327e-01
44 29 6.46833428808965327e-01
45 29 6.50301524783685192e-01
46 29 6.57237716733124921e-01
47 29 6.67642004657284405e-01
48 29 6.81514388556163753e-01
49 29 6.98854868429763076e-01
50 29 7.19663444278081821e-01
51 29 7.43940116101120652e-01
52 29 7.57812500000000000e-01
53 29 7.43940116101120652e-01
54 29 7.19663444278081932e-01
55 29 6.98854868429762854e-01
56 29 6.81514388556163531e-01
57 29 6.67642004657284294e-01
58 29 6.57237716733124699e-01
59 29 6.50301524783685081e-01
60 29 6.46833428808965327e-01
61 29 6.46833428808965327e-01
62 29 6.50301524783685192e-01
63 29 6.57237716733124921e-01
64 29 6.67642004657284405e-01
65 29 6.81514388556163753e-01
66 29 6.98854868429763076e-01
67 29 7.19663444278081821e-01
68 29 7.43940116101120652e-01
69 29 7.57812500000000000e-01
1 30 8.04687500000000000e-01
2 30 7.89957030499128132e-01
3 30 7.64178708872602530e-01
4 30 7.42083004621294617e-01
5 30 7.23669917745204616e-01
6 30 7.08939448244332859e-01
7 30 6.97891596118678792e-01
8 30 6.90526361368242969e-01
9 30 6.86843743993025058e-01
10 30 6.86843743993025058e-01
11 30 6.90526361368243080e-01
12 30 6.97891596118679125e-01
13 30 7.08939448244332970e-01
14 30 7.23669917745204838e-01
15 30 7.42083004621294728e-01
16 30 7.64178708872602419e-01
17 30 7.89957030499128132e-01
18 30 8.04687500000000000e-01
19 30 7.89957030499128132e-01
20 30 7.64178708872602530e-01
21 30 7.42083004621294617e-01
22 30 7.23669917745204616e-01
23 30 7.08939448244332859e-01
24 30 6.97891596118678792e-01
25 30 6.90526361368242969e-01
26 30 6.86843743993025058e-01
27 30 6.86843743993025058e-01
28 30 6.90526361368243080e-01
29 30 6.97891596118679125e-01
30 30 7.08939448244332970e-01
31 30 7.23669917745204838e-01
32 30 7.42083004621294728e-01
33 30 7.64178708872602419e-01
34 30 7.89957030499128132e-01
35 30 8.04687500000000000e-01
36 30 7.89957030499128132e-01
37 30 7.64178708872602530e-01
38 30 7.42083004621294617e-01
39 30 7.23669917745204616e-01
40 30 7.08939448244332859e-01
41 30 6.97891596118678792e-01
42 30 6.90526361368242969e-01
43 30 6.86843743993025058e-01
44 30 6.86843743993025058e-01
45 30 6.90526361368243080e-01
46 30 6.97891596118679125e-01
47 30 7.08939448244332970e-01
48 30 7.23669917745204838e-01
49 30 7.42083004621294728e-01
50 30 7.64178708872602419e-01
51 30 7.89957030499128132e-01
52 30 8.04687500000000000e-01
53 30 7.89957030499128132e-01
54 30 7.64178708872602530e-01
55 30 7.42083004621294617e-01
56 30 7.23669917745204616e-01
57 30 7.08939448244332859e-01
58 30 6.97891596118678792e-01
59 30 6.90526361368242969e-01
60 30 6.86843743993025058e-01
61 30 6.86843743993025058e-01
62 30 6.90526361368243080e-01
63 30 6.97891596118679125e-01
64 30 7.08939448244332970e-01
65 30 7.23669917745204838e-01
66 30 7.42083004621294728e-01
67 30 7.64178708872602419e-01
68 30 7.89957030499128132e-01
69 30 8.04687500000000000e-01
1 31 8.55468750000000000e-01
2 31 8.39808687763636263e-01
3 31 8.12403578849999697e-01
4 31 7.88913485495453926e-01
5 31 7.69338407699999061e-01
6 31 7.53678345463635324e-01
7 31 7.41933298786362383e-01
8 31 7.34103267668180570e-01
9 31 7.30188252109089664e-01
10 31 7.30188252109089664e-01
11 31 7.34103267668180681e-01
12 31 7.41933298786362605e-01
13 31 7.53678345463635546e-01
14 31 7.69338407699999283e-01
15 31 7.88913485495454037e-01
16 31 8.12403578849999586e-01
17 31 8.39808687763636263e-01
18 31 8.55468750000000000e-01
19 31 8.39808687763636263e-01
20 31 8.12403578849999697e-01
21 31 7.88913485495453926e-01
22 31 7.69338407699999061e-01
23 31 7.53678345463635324e-01
24 31 7.41933298786362383e-01
25 31 7.34103267668180570e-01
26 31 7.30188252109089664e-01
27 31 7.30188252109089664e-01
28 31 7.34103267668180681e-01
29 31 7.41933298786362605e-01
30 31 7.53678345463635546e-01
31 31 7.69338407699999283e-01
32 31 7.88913485495454037e-01
33 31 8.12403578849999586e-01
34 31 8.39808687763636263e-01
35 31 8.55468750000000000e-01
36 31 8.39808687763636263e-01
37 31 8.12403578849999697e-01
38 31 7.88913485495453926e-01
39 31 7.69338407699999061e-01
40 31 7.53678345463635324e-01
41 31 7.41933298786362383e-01
42 31 7.34103267668180570e-01
43 31 7.30188252109089664e-01
44 31 7.30188252109089664e-01
45 31 7.34103267668180681e-01
46 31 7.41933298786362605e-01
47 31 7.53678345463635546e-01
48 31 7.69338407699999283e-01
49 31 7.88913485495454037e-01
50 31 8.12403578849999586e-01
51 31 8.39808687763636263e-01
52 31 8.55468750000000000e-01
53 31 8.39808687763636263e-01
54 31 8.12403578849999697e-01
55 31 7.88913485495453926e-01
56 31 7.69338407699999061e-01
57 31 7.53678345463635324e-01
58 31 7.41933298786362383e-01
59 31 7.34103267668180570e-01
60 31 7.30188252109089664e-01
61 31 7.30188252109089664e-01
62 31 7.34103267668180681e-01
63 31 7.41933298786362605e-01
64 31 7.53678345463635546e-01
65 31 7.69338407699999283e-01
66 31 7.88913485495454037e-01
67 31 8.12403578849999586e-01
68 31 8.39808687763636263e-01
69 31 8.55468750000000000e-01
1 32 9.10156250000000000e-01
2 32 8.93495087894644935e-01
3 32 8.64338054210273654e-01
4 32 8.39346311052240890e-01
5 32 8.18519858420546975e-01
6 32 8.01858696315191910e-01
7 32 7.89362824736175472e-01
8 32 7.81032243683497995e-01
9 32 7.76866953157159257e-01
10 32 7.76866953157159257e-01
11 32 7.81032243683498106e-01
12 32 7.89362824736175805e-01
13 32 8.01858696315192132e-01
14 32 8.18519858420547197e-01
15 32 8.39346311052241001e-01
16 32 8.64338054210273432e-01
17 32 8.93495087894644935e-01
18 32 9.10156250000000000e-01
19 32 8.93495087894644935e-01
20 32 8.64338054210273654e-01
21 32 8.39346311052240890e-01
22 32 8.18519858420546975e-01
23 32 8.01858696315191910e-01
24 32 7.89362824736175472e-01
25 32 7.81032243683497995e-01
26 32 7.76866953157159257e-01
27 32 7.76866953157159257e-01
28 32 7.81032243683498106e-01
29 32 7.89362824736175805e-01
30 32 8.01858696315192132e-01
31 32 8.18519858420547197e-01
32 32 8.39346311052241001e-01
33 32 8.64338054210273432e-01
34 32 8.93495087894644935e-01
35 32 9.10156250000000000e-01
36 32 8.93495087894644935e-01
37 32 8.64338054210273654e-01
38 32 8.39346311052240890e-01
39 32 8.18519858420546975e-01
40 32 8.01858696315191910e-01
41 32 7.89362824736175472e-01
42 32 7.81032243683497995e-01
43 32 7.76866953157159257e-01
44 32 7.76866953157159257e-01
45 32 7.81032243683498106e-01
46 32 7.89362824736175805e-01
47 32 8.01858696315192132e-01
48 32 8.18519858420547197e-01
49 32 8.39346311052241001e-01
50 32 8.64338054210273432e-01
51 32 8.93495087894644935e-01
52 32 9.10156250000000000e-01
53 32 8.93495087894644935e-01
54 32 8.64338054210273654e-01
55 32 8.39346311052240890e-01
56 32 8.18519858420546975e-01
57 32 8.01858696315191910e-01
58 32 7.89362824736175472e-01
59 32 7.81032243683497995e-01
60 32 7.76866953157159257e-01
61 32 7.76866953157159257e-01
62 32 7.81032243683498106e-01
63 32 7.89362824736175805e-01
64 32 8.01858696315192132e-01
65 32 8.18519858420547197e-01
66 32 8.39346311052241001e-01
67 32 8.64338054210273432e-01
68 32 8.93495087894644935e-01
69 32 9.10156250000000000e-01
1 33 9.68750000000000000e-01
2 33 9.51016230892154257e-01
3 33 9.19982134953424291e-01
4 33 8.93381481291655510e-01
5 33 8.71214269906848249e-01
6 33 8.53480500799002506e-01
7 33 8.40180173968118171e-01
8 33 8.31313289414195355e-01
9 33 8.26879847137233948e-01
10 33 8.26879847137233948e-01
11 33 8.31313289414195467e-01
12 33 8.40180173968118393e-01
13 33 8.53480500799002728e-01
14 33 8.71214269906848582e-01
15 33 8.93381481291655621e-01
16 33 9.19982134953424180e-01
17 33 9.51016230892154257e-01
18 33 9.68750000000000000e-01
19 33 9.51016230892154257e-01
20 33 9.19982134953424291e-01
21 33 8.93381481291655510e-01
22 33 8.71214269906848249e-01
23 33 8.53480500799002506e-01
24 33 8.40180173968118171e-01
25 33 8.31313289414195355e-01
26 33 8.26879847137233948e-01
27 33 8.26879847137233948e-01
28 33 8.31313289414195467e-01
29 33 8.40180173968118393e-01
30 33 8.53480500799002728e-01
31 33 8.71214269906848582e-01
32 33 8.93381481291655621e-01
33 33 9.19982134953424180e-01
34 33 9.51016230892154257e-01
35 33 9.68750000000000000e-01
36 33 9.51016230892154257e-01
37 33 9.19982134953424291e-01
38 33 8.93381481291655510e-01
39 33 8.71214269906848249e-01
40 33 8.53480500799002506e-01
41 33 8.40180173968118171e-01
42 33 8.31313289414195355e-01
43 33 8.26879847137233948e-01
44 33 8.26879847137233948e-01
45 33 8.31313289414195467e-01
46 33 8.40180173968118393e-01
47 33 8.53480500799002728e-01
48 33 8.71214269906848582e-01
49 33 8.93381481291655621e-01
50 33 9.19982134953424180e-01
51 33 9.51016230892154257e-01
52 33 9.68750000000000000e-01
53 33 9.51016230892154257e-01
54 33 9.19982134953424291e-01
55 33 8.93381481291655510e-01
56 33 8.71214269906848249e-01
57 33 8.53480500799002506e-01
58 33 8.40180173968118171e-01
59 33 8.31313289414195355e-01
60 33 8.26879847137233948e-01
61 33 8.26879847137233948e-01
62 33 8.31313289414195467e-01
63 33 8.40180173968118393e-01
64 33 8.53480500799002728e-01
65 33 8.71214269906848582e-01
66 33 8.93381481291655621e-01
67 33 9.19982134953424180e-01
68 33 9.51016230892154257e-01
69 33 9.68750000000000000e-01
1 34 1.00000000000000000e+00
2 34 9.81694173824159244e-01
3 34 9.49658978016437949e-01
4 34 9.22200238752676649e-01
5 34 8.99317956032875676e-01
6 34 8.81012129857034920e-01
7 34 8.67282760225154270e-01
8 34 8.58129847137233837e-01
9 34 8.53553390593273731e-01
10 34 8.53553390593273731e-01
11 34 8.58129847137233948e-01
12 34 8.67282760225154492e-01
13 34 8.81012129857035142e-01
14 34 8.99317956032875898e-01
15 34 9.22200238752676760e-01
16 34 9.49658978016437838e-01
17 34 9.81694173824159244e-01
18 34 1.00000000000000000e+00
19 34 9.81694173824159244e-01
20 34 9.49658978016437949e-01
21 34 9.22200238752676649e-01
22 34 8.99317956032875676e-01
23 34 8.81012129857034920e-01
24 34 8.67282760225154270e-01
25 34 8.58129847137233837e-01
26 34 8.53553390593273731e-01
27 34 8.53553390593273731e-01
28 34 8.58129847137233948e-01
29 34 8.67282760225154492e-01
30 34 8.81012129857035142e-01
31 34 8.99317956032875898e-01
32 34 9.22200238752676760e-01
33 34 9.49658978016437838e-01
34 34 9.81694173824159244e-01
35 34 1.00000000000000000e+00
36 34 9.81694173824159244e-01
37 34 9.49658978016437949e-01
38 34 9.22200238752676649e-01
39 34 8.99317956032875676e-01
40 34 8.81012129857034920e-01
41 34 8.67282760225154270e-01
42 34 8.58129847137233837e-01
43 34 8.53553390593273731e-01
44 34 8.53553390593273731e-01
45 34 8.58129847137233948e-01
46 34 8.67282760225154492e-01
47 34 8.81012129857035142e-01
48 34 8.99317956032875898e-01
49 34 9.22200238752676760e-01
50 34 9.49658978016437838e-01
51 34 9.81694173824159244e-01
52 34 1.00000000000000000e+00
53 34 9.81694173824159244e-01
54 34 9.49658978016437949e-01
55 34 9.22200238752676649e-01
56 34 8.99317956032875676e-01
57 34 8.81012129857034920e-01
58 34 8.67282760225154270e-01
59 34 8.58129847137233837e-01
60 34 8.53553390593273731e-01
61 34 8.53553390593273731e-01
62 34 8.58129847137233948e-01
63 34 8.67282760225154492e-01
64 34 8.81012129857035142e-01
65 34 8.99317956032875898e-01
66 34 9.22200238752676760e-01
67 34 9.49658978016437838e-01
68 34 9.81694173824159244e-01
69 34 1.00000000000000000e+00
