%%MatrixMarket matrix coordinate  real general
21 10 210
1 1 0.00000000000000000e+00
2 1 0.00000000000000000e+00
3 1 0.00000000000000000e+00
4 1 0.00000000000000000e+00
5 1 0.00000000000000000e+00
6 1 0.00000000000000000e+00
7 1 0.00000000000000000e+00
8 1 0.00000000000000000e+00
9 1 0.00000000000000000e+00
10 1 0.00000000000000000e+00
11 1 0.00000000000000000e+00
12 1 0.00000000000000000e+00
13 1 0.00000000000000000e+00
14 1 0.00000000000000000e+00
15 1 0.00000000000000000e+00
16 1 0.00000000000000000e+00
17 1 0.00000000000000000e+00
18 1 0.00000000000000000e+00
19 1 0.00000000000000000e+00
20 1 0.00000000000000000e+00
21 1 0.00000000000000000e+00
1 2 1.42857142857142877e-01
2 2 1.42857142857142877e-01
3 2 1.21936198656181993e-01
4 2 8.00943102542601981e-02
5 2 2.72490814043637591e-02
6 2 8.74747713676680994e-18
7 2 -2.72490814043637349e-02
8 2 -8.00943102542601704e-02
9 2 -1.21936198656181952e-01
10 2 -1.42857142857142877e-01
11 2 -1.42857142857142877e-01
12 2 -1.42857142857142877e-01
13 2 -1.21936198656181993e-01
14 2 -8.00943102542602259e-02
15 2 -2.72490814043637661e-02
16 2 -2.62424314103004298e-17
17 2 2.72490814043637244e-02
18 2 8.00943102542601704e-02
19 2 1.21936198656181952e-01
20 2 1.42857142857142877e-01
21 2 1.42857142857142877e-01
1 3 4.54545454545454697e-01
2 3 4.54545454545454641e-01
3 3 3.87978813906033615e-01
4 3 2.54845532627191562e-01
5 3 8.67016226502483195e-02
6 3 2.78328817988034870e-17
7 3 -8.67016226502482501e-02
8 3 -2.54845532627191451e-01
9 3 -3.87978813906033504e-01
10 3 -4.54545454545454586e-01
11 3 -4.54545454545454697e-01
12 3 -4.54545454545454641e-01
13 3 -3.87978813906033615e-01
14 3 -2.54845532627191729e-01
15 3 -8.67016226502483611e-02
16 3 -8.34986453964104549e-17
17 3 8.67016226502482085e-02
18 3 2.54845532627191396e-01
19 3 3.87978813906033504e-01
20 3 4.54545454545454586e-01
21 3 4.54545454545454697e-01
1 4 7.77777777777777790e-01
2 4 7.77777777777777901e-01
3 4 6.63874859350324198e-01
4 4 4.36069022495416569e-01
5 4 1.48356109868202662e-01
6 4 4.76251533001748476e-17
7 4 -1.48356109868202607e-01
8 4 -4.36069022495416514e-01
9 4 -6.63874859350323865e-01
10 4 -7.77777777777777679e-01
11 4 -7.77777777777777790e-01
12 4 -7.77777777777777901e-01
13 4 -6.63874859350324198e-01
14 4 -4.36069022495416792e-01
15 4 -1.48356109868202746e-01
16 4 -1.42875459900524537e-16
17 4 1.48356109868202496e-01
18 4 4.36069022495416403e-01
19 4 6.63874859350323865e-01
20 4 7.77777777777777679e-01
21 4 7.77777777777777790e-01
1 5 1.00000000000000000e+00
2 5 1.00000000000000000e+00
3 5 8.53553390593273953e-01
4 5 5.60660171779821415e-01
5 5 1.90743569830546300e-01
6 5 6.12323399573676604e-17
7 5 -1.90743569830546217e-01
8 5 -5.60660171779821193e-01
9 5 -8.53553390593273620e-01
10 5 -1.00000000000000000e+00
11 5 -1.00000000000000000e+00
12 5 -1.00000000000000000e+00
13 5 -8.53553390593273953e-01
14 5 -5.60660171779821637e-01
15 5 -1.90743569830546411e-01
16 5 -1.83697019872102969e-16
17 5 1.90743569830546050e-01
18 5 5.60660171779821082e-01
19 5 8.53553390593273620e-01
20 5 1.00000000000000000e+00
21 5 1.00000000000000000e+00
1 6 1.00000000000000000e+00
2 6 1.00000000000000000e+00
3 6 8.53553390593273953e-01
4 6 5.60660171779821415e-01
5 6 1.90743569830546300e-01
6 6 6.12323399573676604e-17
7 6 -1.90743569830546217e-01
8 6 -5.60660171779821193e-01
9 6 -8.53553390593273620e-01
10 6 -1.00000000000000000e+00
11 6 -1.00000000000000000e+00
12 6 -1.00000000000000000e+00
13 6 -8.53553390593273953e-01
14 6 -5.60660171779821637e-01
15 6 -1.90743569830546383e-01
16 6 -1.83697019872102969e-16
17 6 1.90743569830546050e-01
18 6 5.60660171779821082e-01
19 6 8.53553390593273620e-01
20 6 1.00000000000000000e+00
21 6 1.00000000000000000e+00
1 7 7.77777777777777790e-01
2 7 7.77777777777777568e-01
3 7 6.63874859350323976e-01
4 7 4.36069022495416625e-01
5 7 1.48356109868202690e-01
6 7 4.76251533001748476e-17
7 7 -1.48356109868202579e-01
8 7 -4.36069022495416403e-01
9 7 -6.63874859350323976e-01
10 7 -7.77777777777777790e-01
11 7 -7.77777777777777790e-01
12 7 -7.77777777777777568e-01
13 7 -6.63874859350323976e-01
14 7 -4.36069022495416847e-01
15 7 -1.48356109868202746e-01
16 7 -1.42875459900524512e-16
17 7 1.48356109868202468e-01
18 7 4.36069022495416347e-01
19 7 6.63874859350323976e-01
20 7 7.77777777777777790e-01
21 7 7.77777777777777790e-01
1 8 4.54545454545454530e-01
2 8 4.54545454545454475e-01
3 8 3.87978813906033504e-01
4 8 2.54845532627191562e-01
5 8 8.67016226502483195e-02
6 8 2.78328817988034809e-17
7 8 -8.67016226502482501e-02
8 8 -2.54845532627191396e-01
9 8 -3.87978813906033559e-01
10 8 -4.54545454545454586e-01
11 8 -4.54545454545454530e-01
12 8 -4.54545454545454475e-01
13 8 -3.87978813906033504e-01
14 8 -2.54845532627191673e-01
15 8 -8.67016226502483611e-02
16 8 -8.34986453964104303e-17
17 8 8.67016226502482085e-02
18 8 2.54845532627191396e-01
19 8 3.87978813906033559e-01
20 8 4.54545454545454586e-01
21 8 4.54545454545454530e-01
1 9 1.42857142857142849e-01
2 9 1.42857142857142849e-01
3 9 1.21936198656181966e-01
4 9 8.00943102542601981e-02
5 9 2.72490814043637557e-02
6 9 8.74747713676680840e-18
7 9 -2.72490814043637349e-02
8 9 -8.00943102542601704e-02
9 9 -1.21936198656181966e-01
10 9 -1.42857142857142877e-01
11 9 -1.42857142857142849e-01
12 9 -1.42857142857142849e-01
13 9 -1.21936198656181966e-01
14 9 -8.00943102542602398e-02
15 9 -2.72490814043637695e-02
16 9 -2.62424314103004237e-17
17 9 2.72490814043637210e-02
18 9 8.00943102542601565e-02
19 9 1.21936198656181966e-01
20 9 1.42857142857142877e-01
21 9 1.42857142857142849e-01
1 10 0.00000000000000000e+00
2 10 0.00000000000000000e+00
3 10 0.00000000000000000e+00
4 10 0.00000000000000000e+00
5 10 0.00000000000000000e+00
6 10 0.00000000000000000e+00
7 10 0.00000000000000000e+00
8 10 0.00000000000000000e+00
9 10 0.00000000000000000e+00
10 10 0.00000000000000000e+00
11 10 0.00000000000000000e+00
12 10 0.00000000000000000e+00
13 10 0.00000000000000000e+00
14 10 0.00000000000000000e+00
15 10 0.00000000000000000e+00
16 10 0.00000000000000000e+00
17 10 0.00000000000000000e+00
18 10 0.00000000000000000e+00
19 10 0.00000000000000000e+00
20 10 0.00000000000000000e+00
21 10 0.00000000000000000e+00
