%%MatrixMarket matrix coordinate  real general
21 10 210
1 1 0.00000000000000000e+00
2 1 0.00000000000000000e+00
3 1 0.00000000000000000e+00
4 1 0.00000000000000000e+00
5 1 0.00000000000000000e+00
6 1 0.00000000000000000e+00
7 1 0.00000000000000000e+00
8 1 0.00000000000000000e+00
9 1 0.00000000000000000e+00
10 1 0.00000000000000000e+00
11 1 0.00000000000000000e+00
12 1 0.00000000000000000e+00
13 1 0.00000000000000000e+00
14 1 0.00000000000000000e+00
15 1 0.00000000000000000e+00
16 1 0.00000000000000000e+00
17 1 0.00000000000000000e+00
18 1 0.00000000000000000e+00
19 1 0.00000000000000000e+00
20 1 0.00000000000000000e+00
21 1 0.00000000000000000e+00
1 2 0.00000000000000000e+00
2 2 -2.72490814043637418e-02
3 2 -8.00943102542601704e-02
4 2 -1.21936198656181952e-01
5 2 -1.42857142857142877e-01
6 2 -1.42857142857142877e-01
7 2 -1.42857142857142877e-01
8 2 -1.21936198656181993e-01
9 2 -8.00943102542601981e-02
10 2 -2.72490814043637626e-02
11 2 -1.74949542735336199e-17
12 2 2.72490814043637244e-02
13 2 8.00943102542601704e-02
14 2 1.21936198656181952e-01
15 2 1.42857142857142877e-01
16 2 1.42857142857142877e-01
17 2 1.42857142857142877e-01
18 2 1.21936198656181993e-01
19 2 8.00943102542602259e-02
20 2 2.72490814043637869e-02
21 2 3.49899085470672398e-17
1 3 0.00000000000000000e+00
2 3 -8.67016226502482779e-02
3 3 -2.54845532627191451e-01
4 3 -3.87978813906033504e-01
5 3 -4.54545454545454586e-01
6 3 -4.54545454545454697e-01
7 3 -4.54545454545454641e-01
8 3 -3.87978813906033615e-01
9 3 -2.54845532627191562e-01
10 3 -8.67016226502483195e-02
11 3 -5.56657635976069740e-17
12 3 8.67016226502482085e-02
13 3 2.54845532627191396e-01
14 3 3.87978813906033504e-01
15 3 4.54545454545454586e-01
16 3 4.54545454545454697e-01
17 3 4.54545454545454641e-01
18 3 3.87978813906033615e-01
19 3 2.54845532627191729e-01
20 3 8.67016226502484028e-02
21 3 1.11331527195213948e-16
1 4 0.00000000000000000e+00
2 4 -1.48356109868202607e-01
3 4 -4.36069022495416514e-01
4 4 -6.63874859350323865e-01
5 4 -7.77777777777777679e-01
6 4 -7.77777777777777790e-01
7 4 -7.77777777777777901e-01
8 4 -6.63874859350324198e-01
9 4 -4.36069022495416569e-01
10 4 -1.48356109868202662e-01
11 4 -9.52503066003496953e-17
12 4 1.48356109868202496e-01
13 4 4.36069022495416403e-01
14 4 6.63874859350323865e-01
15 4 7.77777777777777679e-01
16 4 7.77777777777777790e-01
17 4 7.77777777777777901e-01
18 4 6.63874859350324198e-01
19 4 4.36069022495416792e-01
20 4 1.48356109868202801e-01
21 4 1.90500613200699391e-16
1 5 0.00000000000000000e+00
2 5 -1.90743569830546217e-01
3 5 -5.60660171779821193e-01
4 5 -8.53553390593273620e-01
5 5 -1.00000000000000000e+00
6 5 -1.00000000000000000e+00
7 5 -1.00000000000000000e+00
8 5 -8.53553390593273953e-01
9 5 -5.60660171779821415e-01
10 5 -1.90743569830546300e-01
11 5 -1.22464679914735321e-16
12 5 1.90743569830546078e-01
13 5 5.60660171779821082e-01
14 5 8.53553390593273620e-01
15 5 1.00000000000000000e+00
16 5 1.00000000000000000e+00
17 5 1.00000000000000000e+00
18 5 8.53553390593273953e-01
19 5 5.60660171779821637e-01
20 5 1.90743569830546467e-01
21 5 2.44929359829470641e-16
1 6 0.00000000000000000e+00
2 6 -1.90743569830546217e-01
3 6 -5.60660171779821193e-01
4 6 -8.53553390593273620e-01
5 6 -1.00000000000000000e+00
6 6 -1.00000000000000000e+00
7 6 -1.00000000000000000e+00
8 6 -8.53553390593273953e-01
9 6 -5.60660171779821415e-01
10 6 -1.90743569830546328e-01
11 6 -1.22464679914735321e-16
12 6 1.90743569830546078e-01
13 6 5.60660171779821082e-01
14 6 8.53553390593273620e-01
15 6 1.00000000000000000e+00
16 6 1.00000000000000000e+00
17 6 1.00000000000000000e+00
18 6 8.53553390593273953e-01
19 6 5.60660171779821637e-01
20 6 1.90743569830546467e-01
21 6 2.44929359829470641e-16
1 7 0.00000000000000000e+00
2 7 -1.48356109868202579e-01
3 7 -4.36069022495416403e-01
4 7 -6.63874859350323976e-01
5 7 -7.77777777777777790e-01
6 7 -7.77777777777777790e-01
7 7 -7.77777777777777568e-01
8 7 -6.63874859350323976e-01
9 7 -4.36069022495416625e-01
10 7 -1.48356109868202690e-01
11 7 -9.52503066003496953e-17
12 7 1.48356109868202468e-01
13 7 4.36069022495416347e-01
14 7 6.63874859350323976e-01
15 7 7.77777777777777790e-01
16 7 7.77777777777777790e-01
17 7 7.77777777777777568e-01
18 7 6.63874859350323976e-01
19 7 4.36069022495416847e-01
20 7 1.48356109868202801e-01
21 7 1.90500613200699391e-16
1 8 0.00000000000000000e+00
2 8 -8.67016226502482640e-02
3 8 -2.54845532627191396e-01
4 8 -3.87978813906033559e-01
5 8 -4.54545454545454586e-01
6 8 -4.54545454545454530e-01
7 8 -4.54545454545454475e-01
8 8 -3.87978813906033504e-01
9 8 -2.54845532627191562e-01
10 8 -8.67016226502483195e-02
11 8 -5.56657635976069617e-17
12 8 8.67016226502482085e-02
13 8 2.54845532627191396e-01
14 8 3.87978813906033559e-01
15 8 4.54545454545454586e-01
16 8 4.54545454545454530e-01
17 8 4.54545454545454475e-01
18 8 3.87978813906033504e-01
19 8 2.54845532627191673e-01
20 8 8.67016226502483889e-02
21 8 1.11331527195213923e-16
1 9 0.00000000000000000e+00
2 9 -2.72490814043637383e-02
3 9 -8.00943102542601704e-02
4 9 -1.21936198656181966e-01
5 9 -1.42857142857142877e-01
6 9 -1.42857142857142849e-01
7 9 -1.42857142857142849e-01
8 9 -1.21936198656181966e-01
9 9 -8.00943102542601981e-02
10 9 -2.72490814043637591e-02
11 9 -1.74949542735336168e-17
12 9 2.72490814043637244e-02
13 9 8.00943102542601565e-02
14 9 1.21936198656181966e-01
15 9 1.42857142857142877e-01
16 9 1.42857142857142849e-01
17 9 1.42857142857142849e-01
18 9 1.21936198656181966e-01
19 9 8.00943102542602398e-02
20 9 2.72490814043637800e-02
21 9 3.49899085470672336e-17
1 10 0.00000000000000000e+00
2 10 0.00000000000000000e+00
3 10 0.00000000000000000e+00
4 10 0.00000000000000000e+00
5 10 0.00000000000000000e+00
6 10 0.00000000000000000e+00
7 10 0.00000000000000000e+00
8 10 0.00000000000000000e+00
9 10 0.00000000000000000e+00
10 10 0.00000000000000000e+00
11 10 0.00000000000000000e+00
12 10 0.00000000000000000e+00
13 10 0.00000000000000000e+00
14 10 0.00000000000000000e+00
15 10 0.00000000000000000e+00
16 10 0.00000000000000000e+00
17 10 0.00000000000000000e+00
18 10 0.00000000000000000e+00
19 10 0.00000000000000000e+00
20 10 0.00000000000000000e+00
21 10 0.00000000000000000e+00
