%%MatrixMarket matrix coordinate  real general
21 10 210
1 1 1.00000000000000000e+00
2 1 1.00000000000000000e+00
3 1 1.00000000000000000e+00
4 1 1.00000000000000000e+00
5 1 1.00000000000000000e+00
6 1 1.00000000000000000e+00
7 1 1.00000000000000000e+00
8 1 1.00000000000000000e+00
9 1 1.00000000000000000e+00
10 1 1.00000000000000000e+00
11 1 1.00000000000000000e+00
12 1 1.00000000000000000e+00
13 1 1.00000000000000000e+00
14 1 1.00000000000000000e+00
15 1 1.00000000000000000e+00
16 1 1.00000000000000000e+00
17 1 1.00000000000000000e+00
18 1 1.00000000000000000e+00
19 1 1.00000000000000000e+00
20 1 1.00000000000000000e+00
21 1 1.00000000000000000e+00
1 2 1.00000000000000000e+00
2 2 1.00000000000000000e+00
3 2 1.00000000000000000e+00
4 2 1.00000000000000000e+00
5 2 1.00000000000000000e+00
6 2 1.00000000000000000e+00
7 2 1.00000000000000000e+00
8 2 1.00000000000000000e+00
9 2 1.00000000000000000e+00
10 2 1.00000000000000000e+00
11 2 1.00000000000000000e+00
12 2 1.00000000000000000e+00
13 2 1.00000000000000000e+00
14 2 1.00000000000000000e+00
15 2 1.00000000000000000e+00
16 2 1.00000000000000000e+00
17 2 1.00000000000000000e+00
18 2 1.00000000000000000e+00
19 2 1.00000000000000000e+00
20 2 1.00000000000000000e+00
21 2 1.00000000000000000e+00
1 3 9.09090909090909061e-01
2 3 9.09090909090908950e-01
3 3 9.09090909090908950e-01
4 3 9.09090909090909172e-01
5 3 9.09090909090909172e-01
6 3 9.09090909090909061e-01
7 3 9.09090909090908950e-01
8 3 9.09090909090908950e-01
9 3 9.09090909090909172e-01
10 3 9.09090909090909172e-01
11 3 9.09090909090909061e-01
12 3 9.09090909090908950e-01
13 3 9.09090909090908950e-01
14 3 9.09090909090909172e-01
15 3 9.09090909090909172e-01
16 3 9.09090909090909061e-01
17 3 9.09090909090908950e-01
18 3 9.09090909090908950e-01
19 3 9.09090909090909172e-01
20 3 9.09090909090909172e-01
21 3 9.09090909090909061e-01
1 4 6.66666666666666630e-01
2 4 6.66666666666666630e-01
3 4 6.66666666666666630e-01
4 4 6.66666666666666630e-01
5 4 6.66666666666666630e-01
6 4 6.66666666666666630e-01
7 4 6.66666666666666630e-01
8 4 6.66666666666666630e-01
9 4 6.66666666666666630e-01
10 4 6.66666666666666630e-01
11 4 6.66666666666666630e-01
12 4 6.66666666666666630e-01
13 4 6.66666666666666630e-01
14 4 6.66666666666666630e-01
15 4 6.66666666666666630e-01
16 4 6.66666666666666630e-01
17 4 6.66666666666666630e-01
18 4 6.66666666666666630e-01
19 4 6.66666666666666630e-01
20 4 6.66666666666666630e-01
21 4 6.66666666666666630e-01
1 5 2.50000000000000000e-01
2 5 2.49999999999999944e-01
3 5 2.50000000000000056e-01
4 5 2.49999999999999944e-01
5 5 2.49999999999999917e-01
6 5 2.50000000000000000e-01
7 5 2.49999999999999944e-01
8 5 2.50000000000000056e-01
9 5 2.49999999999999944e-01
10 5 2.49999999999999917e-01
11 5 2.50000000000000000e-01
12 5 2.49999999999999944e-01
13 5 2.50000000000000056e-01
14 5 2.49999999999999944e-01
15 5 2.49999999999999917e-01
16 5 2.50000000000000000e-01
17 5 2.49999999999999944e-01
18 5 2.50000000000000056e-01
19 5 2.49999999999999944e-01
20 5 2.49999999999999917e-01
21 5 2.50000000000000000e-01
1 6 -2.50000000000000000e-01
2 6 -2.50000000000000167e-01
3 6 -2.50000000000000056e-01
4 6 -2.50000000000000056e-01
5 6 -2.50000000000000222e-01
6 6 -2.50000000000000000e-01
7 6 -2.50000000000000167e-01
8 6 -2.50000000000000056e-01
9 6 -2.50000000000000056e-01
10 6 -2.50000000000000222e-01
11 6 -2.50000000000000000e-01
12 6 -2.50000000000000167e-01
13 6 -2.50000000000000056e-01
14 6 -2.50000000000000056e-01
15 6 -2.50000000000000222e-01
16 6 -2.50000000000000000e-01
17 6 -2.50000000000000167e-01
18 6 -2.50000000000000056e-01
19 6 -2.50000000000000056e-01
20 6 -2.50000000000000222e-01
21 6 -2.50000000000000000e-01
1 7 -6.66666666666666630e-01
2 7 -6.66666666666666630e-01
3 7 -6.66666666666666630e-01
4 7 -6.66666666666666741e-01
5 7 -6.66666666666666963e-01
6 7 -6.66666666666666630e-01
7 7 -6.66666666666666630e-01
8 7 -6.66666666666666630e-01
9 7 -6.66666666666666741e-01
10 7 -6.66666666666666963e-01
11 7 -6.66666666666666630e-01
12 7 -6.66666666666666630e-01
13 7 -6.66666666666666630e-01
14 7 -6.66666666666666741e-01
15 7 -6.66666666666666963e-01
16 7 -6.66666666666666630e-01
17 7 -6.66666666666666630e-01
18 7 -6.66666666666666630e-01
19 7 -6.66666666666666741e-01
20 7 -6.66666666666666963e-01
21 7 -6.66666666666666630e-01
1 8 -9.09090909090909061e-01
2 8 -9.09090909090909172e-01
3 8 -9.09090909090908950e-01
4 8 -9.09090909090909172e-01
5 8 -9.09090909090909172e-01
6 8 -9.09090909090909061e-01
7 8 -9.09090909090909172e-01
8 8 -9.09090909090908950e-01
9 8 -9.09090909090909172e-01
10 8 -9.09090909090909172e-01
11 8 -9.09090909090909061e-01
12 8 -9.09090909090909172e-01
13 8 -9.09090909090908950e-01
14 8 -9.09090909090909172e-01
15 8 -9.09090909090909172e-01
16 8 -9.09090909090909061e-01
17 8 -9.09090909090909172e-01
18 8 -9.09090909090908950e-01
19 8 -9.09090909090909172e-01
20 8 -9.09090909090909172e-01
21 8 -9.09090909090909061e-01
1 9 -1.00000000000000000e+00
2 9 -1.00000000000000000e+00
3 9 -1.00000000000000000e+00
4 9 -1.00000000000000000e+00
5 9 -1.00000000000000000e+00
6 9 -1.00000000000000000e+00
7 9 -1.00000000000000000e+00
8 9 -1.00000000000000000e+00
9 9 -1.00000000000000000e+00
10 9 -1.00000000000000000e+00
11 9 -1.00000000000000000e+00
12 9 -1.00000000000000000e+00
13 9 -1.00000000000000000e+00
14 9 -1.00000000000000000e+00
15 9 -1.00000000000000000e+00
16 9 -1.00000000000000000e+00
17 9 -1.00000000000000000e+00
18 9 -1.00000000000000000e+00
19 9 -1.00000000000000000e+00
20 9 -1.00000000000000000e+00
21 9 -1.00000000000000000e+00
1 10 -1.00000000000000000e+00
2 10 -1.00000000000000000e+00
3 10 -1.00000000000000000e+00
4 10 -1.00000000000000000e+00
5 10 -1.00000000000000000e+00
6 10 -1.00000000000000000e+00
7 10 -1.00000000000000000e+00
8 10 -1.00000000000000000e+00
9 10 -1.00000000000000000e+00
10 10 -1.00000000000000000e+00
11 10 -1.00000000000000000e+00
12 10 -1.00000000000000000e+00
13 10 -1.00000000000000000e+00
14 10 -1.00000000000000000e+00
15 10 -1.00000000000000000e+00
16 10 -1.00000000000000000e+00
17 10 -1.00000000000000000e+00
18 10 -1.00000000000000000e+00
19 10 -1.00000000000000000e+00
20 10 -1.00000000000000000e+00
21 10 -1.00000000000000000e+00
