%%MatrixMarket matrix coordinate  real general
1 24 24
1 1 0.00000000000000000e+00
1 2 0.00000000000000000e+00
1 3 0.00000000000000000e+00
1 4 6.25000000000000000e-02
1 5 1.25000000000000000e-01
1 6 1.87500000000000000e-01
1 7 2.50000000000000000e-01
1 8 2.50000000000000000e-01
1 9 3.12500000000000000e-01
1 10 3.75000000000000000e-01
1 11 4.37500000000000000e-01
1 12 5.00000000000000000e-01
1 13 5.00000000000000000e-01
1 14 5.62500000000000000e-01
1 15 6.25000000000000000e-01
1 16 6.87500000000000000e-01
1 17 7.50000000000000000e-01
1 18 7.50000000000000000e-01
1 19 8.12500000000000000e-01
1 20 8.75000000000000000e-01
1 21 9.37500000000000000e-01
1 22 1.00000000000000000e+00
1 23 1.00000000000000000e+00
1 24 1.00000000000000000e+00
