%%MatrixMarket matrix coordinate  real general
21 10 210
1 1 1.00000000000000000e+00
2 1 9.26776695296636976e-01
3 1 8.53553390593273953e-01
4 1 8.53553390593273731e-01
5 1 9.26776695296636865e-01
6 1 1.00000000000000000e+00
7 1 9.26776695296636976e-01
8 1 8.53553390593273953e-01
9 1 8.53553390593273731e-01
10 1 9.26776695296636865e-01
11 1 1.00000000000000000e+00
12 1 9.26776695296636976e-01
13 1 8.53553390593273953e-01
14 1 8.53553390593273731e-01
15 1 9.26776695296636865e-01
16 1 1.00000000000000000e+00
17 1 9.26776695296636976e-01
18 1 8.53553390593273953e-01
19 1 8.53553390593273731e-01
20 1 9.26776695296636865e-01
21 1 1.00000000000000000e+00
1 2 8.75000000000000000e-01
2 2 8.10929608384557410e-01
3 2 7.46859216769114709e-01
4 2 7.46859216769114598e-01
5 2 8.10929608384557188e-01
6 2 8.75000000000000000e-01
7 2 8.10929608384557410e-01
8 2 7.46859216769114709e-01
9 2 7.46859216769114598e-01
10 2 8.10929608384557188e-01
11 2 8.75000000000000000e-01
12 2 8.10929608384557410e-01
13 2 7.46859216769114709e-01
14 2 7.46859216769114598e-01
15 2 8.10929608384557188e-01
16 2 8.75000000000000000e-01
17 2 8.10929608384557410e-01
18 2 7.46859216769114709e-01
19 2 7.46859216769114598e-01
20 2 8.10929608384557188e-01
21 2 8.75000000000000000e-01
1 3 6.87500000000000000e-01
2 3 6.37158978016437949e-01
3 3 5.86817956032875898e-01
4 3 5.86817956032875676e-01
5 3 6.37158978016437838e-01
6 3 6.87500000000000000e-01
7 3 6.37158978016437949e-01
8 3 5.86817956032875898e-01
9 3 5.86817956032875676e-01
10 3 6.37158978016437838e-01
11 3 6.87500000000000000e-01
12 3 6.37158978016437949e-01
13 3 5.86817956032875898e-01
14 3 5.86817956032875676e-01
15 3 6.37158978016437838e-01
16 3 6.87500000000000000e-01
17 3 6.37158978016437949e-01
18 3 5.86817956032875898e-01
19 3 5.86817956032875676e-01
20 3 6.37158978016437838e-01
21 3 6.87500000000000000e-01
1 4 5.62500000000000000e-01
2 4 5.21311891104358271e-01
3 4 4.80123782208716599e-01
4 4 4.80123782208716543e-01
5 4 5.21311891104358271e-01
6 4 5.62500000000000000e-01
7 4 5.21311891104358271e-01
8 4 4.80123782208716599e-01
9 4 4.80123782208716543e-01
10 4 5.21311891104358271e-01
11 4 5.62500000000000000e-01
12 4 5.21311891104358271e-01
13 4 4.80123782208716599e-01
14 4 4.80123782208716543e-01
15 4 5.21311891104358271e-01
16 4 5.62500000000000000e-01
17 4 5.21311891104358271e-01
18 4 4.80123782208716599e-01
19 4 4.80123782208716543e-01
20 4 5.21311891104358271e-01
21 4 5.62500000000000000e-01
1 5 5.00000000000000000e-01
2 5 4.63388347648318488e-01
3 5 4.26776695296636976e-01
4 5 4.26776695296636921e-01
5 5 4.63388347648318433e-01
6 5 5.00000000000000000e-01
7 5 4.63388347648318488e-01
8 5 4.26776695296636976e-01
9 5 4.26776695296636921e-01
10 5 4.63388347648318433e-01
11 5 5.00000000000000000e-01
12 5 4.63388347648318488e-01
13 5 4.26776695296636976e-01
14 5 4.26776695296636921e-01
15 5 4.63388347648318433e-01
16 5 5.00000000000000000e-01
17 5 4.63388347648318488e-01
18 5 4.26776695296636976e-01
19 5 4.26776695296636921e-01
20 5 4.63388347648318433e-01
21 5 5.00000000000000000e-01
1 6 5.00000000000000000e-01
2 6 4.63388347648318488e-01
3 6 4.26776695296636976e-01
4 6 4.26776695296636921e-01
5 6 4.63388347648318433e-01
6 6 5.00000000000000000e-01
7 6 4.63388347648318488e-01
8 6 4.26776695296636976e-01
9 6 4.26776695296636921e-01
10 6 4.63388347648318433e-01
11 6 5.00000000000000000e-01
12 6 4.63388347648318488e-01
13 6 4.26776695296636976e-01
14 6 4.26776695296636921e-01
15 6 4.63388347648318433e-01
16 6 5.00000000000000000e-01
17 6 4.63388347648318488e-01
18 6 4.26776695296636976e-01
19 6 4.26776695296636921e-01
20 6 4.63388347648318433e-01
21 6 5.00000000000000000e-01
1 7 5.62500000000000000e-01
2 7 5.21311891104358383e-01
3 7 4.80123782208716654e-01
4 7 4.80123782208716487e-01
5 7 5.21311891104358160e-01
6 7 5.62500000000000000e-01
7 7 5.21311891104358383e-01
8 7 4.80123782208716654e-01
9 7 4.80123782208716487e-01
10 7 5.21311891104358160e-01
11 7 5.62500000000000000e-01
12 7 5.21311891104358383e-01
13 7 4.80123782208716654e-01
14 7 4.80123782208716487e-01
15 7 5.21311891104358160e-01
16 7 5.62500000000000000e-01
17 7 5.21311891104358383e-01
18 7 4.80123782208716654e-01
19 7 4.80123782208716487e-01
20 7 5.21311891104358160e-01
21 7 5.62500000000000000e-01
1 8 6.87500000000000000e-01
2 8 6.37158978016437949e-01
3 8 5.86817956032875898e-01
4 8 5.86817956032875676e-01
5 8 6.37158978016437838e-01
6 8 6.87500000000000000e-01
7 8 6.37158978016437949e-01
8 8 5.86817956032875898e-01
9 8 5.86817956032875676e-01
10 8 6.37158978016437838e-01
11 8 6.87500000000000000e-01
12 8 6.37158978016437949e-01
13 8 5.86817956032875898e-01
14 8 5.86817956032875676e-01
15 8 6.37158978016437838e-01
16 8 6.87500000000000000e-01
17 8 6.37158978016437949e-01
18 8 5.86817956032875898e-01
19 8 5.86817956032875676e-01
20 8 6.37158978016437838e-01
21 8 6.87500000000000000e-01
1 9 8.75000000000000000e-01
2 9 8.10929608384557410e-01
3 9 7.46859216769114709e-01
4 9 7.46859216769114487e-01
5 9 8.10929608384557188e-01
6 9 8.75000000000000000e-01
7 9 8.10929608384557410e-01
8 9 7.46859216769114709e-01
9 9 7.46859216769114487e-01
10 9 8.10929608384557188e-01
11 9 8.75000000000000000e-01
12 9 8.10929608384557410e-01
13 9 7.46859216769114709e-01
14 9 7.46859216769114487e-01
15 9 8.10929608384557188e-01
16 9 8.75000000000000000e-01
17 9 8.10929608384557410e-01
18 9 7.46859216769114709e-01
19 9 7.46859216769114487e-01
20 9 8.10929608384557188e-01
21 9 8.75000000000000000e-01
1 10 1.00000000000000000e+00
2 10 9.26776695296636976e-01
3 10 8.53553390593273953e-01
4 10 8.53553390593273731e-01
5 10 9.26776695296636865e-01
6 10 1.00000000000000000e+00
7 10 9.26776695296636976e-01
8 10 8.53553390593273953e-01
9 10 8.53553390593273731e-01
10 10 9.26776695296636865e-01
11 10 1.00000000000000000e+00
12 10 9.26776695296636976e-01
13 10 8.53553390593273953e-01
14 10 8.53553390593273731e-01
15 10 9.26776695296636865e-01
16 10 1.00000000000000000e+00
17 10 9.26776695296636976e-01
18 10 8.53553390593273953e-01
19 10 8.53553390593273731e-01
20 10 9.26776695296636865e-01
21 10 1.00000000000000000e+00
