%%MatrixMarket matrix coordinate  real general
37 18 666
1 1 0.00000000000000000e+00
2 1 0.00000000000000000e+00
3 1 0.00000000000000000e+00
4 1 0.00000000000000000e+00
5 1 0.00000000000000000e+00
6 1 0.00000000000000000e+00
7 1 0.00000000000000000e+00
8 1 0.00000000000000000e+00
9 1 0.00000000000000000e+00
10 1 0.00000000000000000e+00
11 1 0.00000000000000000e+00
12 1 0.00000000000000000e+00
13 1 0.00000000000000000e+00
14 1 0.00000000000000000e+00
15 1 0.00000000000000000e+00
16 1 0.00000000000000000e+00
17 1 0.00000000000000000e+00
18 1 0.00000000000000000e+00
19 1 0.00000000000000000e+00
20 1 0.00000000000000000e+00
21 1 0.00000000000000000e+00
22 1 0.00000000000000000e+00
23 1 0.00000000000000000e+00
24 1 0.00000000000000000e+00
25 1 0.00000000000000000e+00
26 1 0.00000000000000000e+00
27 1 0.00000000000000000e+00
28 1 0.00000000000000000e+00
29 1 0.00000000000000000e+00
30 1 0.00000000000000000e+00
31 1 0.00000000000000000e+00
32 1 0.00000000000000000e+00
33 1 0.00000000000000000e+00
34 1 0.00000000000000000e+00
35 1 0.00000000000000000e+00
36 1 0.00000000000000000e+00
37 1 0.00000000000000000e+00
1 2 6.66666666666666935e-02
2 2 6.66666666666666935e-02
3 2 6.43734359158011360e-02
4 2 5.94980781149955784e-02
5 2 5.20220057259940527e-02
6 2 4.22588984322122968e-02
7 2 3.08237239083112083e-02
8 2 1.85088208984907840e-02
9 2 6.11649136536884623e-03
10 2 4.08215599715784474e-18
11 2 -6.11649136536883929e-03
12 2 -1.85088208984907805e-02
13 2 -3.08237239083112048e-02
14 2 -4.22588984322123037e-02
15 2 -5.20220057259940458e-02
16 2 -5.94980781149956062e-02
17 2 -6.43734359158011499e-02
18 2 -6.66666666666666935e-02
19 2 -6.66666666666666935e-02
20 2 -6.66666666666666935e-02
21 2 -6.43734359158011360e-02
22 2 -5.94980781149955923e-02
23 2 -5.20220057259940666e-02
24 2 -4.22588984322122968e-02
25 2 -3.08237239083112187e-02
26 2 -1.85088208984907944e-02
27 2 -6.11649136536885317e-03
28 2 -1.22464679914735358e-17
29 2 6.11649136536882802e-03
30 2 1.85088208984907701e-02
31 2 3.08237239083111805e-02
32 2 4.22588984322122968e-02
33 2 5.20220057259940458e-02
34 2 5.94980781149956062e-02
35 2 6.43734359158011499e-02
36 2 6.66666666666666935e-02
37 2 6.66666666666666935e-02
1 3 2.07547169811320847e-01
2 3 2.07547169811320847e-01
3 3 2.00407866530324330e-01
4 3 1.85229865829703216e-01
5 3 1.61955300845075784e-01
6 3 1.31560721534245834e-01
7 3 9.59606499032330251e-02
8 3 5.76218009103958359e-02
9 3 1.90419070808652731e-02
10 3 1.27085988590763094e-17
11 3 -1.90419070808652523e-02
12 3 -5.76218009103958220e-02
13 3 -9.59606499032329835e-02
14 3 -1.31560721534245834e-01
15 3 -1.61955300845075784e-01
16 3 -1.85229865829703300e-01
17 3 -2.00407866530324330e-01
18 3 -2.07547169811320847e-01
19 3 -2.07547169811320847e-01
20 3 -2.07547169811320847e-01
21 3 -2.00407866530324330e-01
22 3 -1.85229865829703216e-01
23 3 -1.61955300845075839e-01
24 3 -1.31560721534245834e-01
25 3 -9.59606499032330390e-02
26 3 -5.76218009103958498e-02
27 3 -1.90419070808653008e-02
28 3 -3.81257965772289283e-17
29 3 1.90419070808652210e-02
30 3 5.76218009103957873e-02
31 3 9.59606499032329141e-02
32 3 1.31560721534245806e-01
33 3 1.61955300845075784e-01
34 3 1.85229865829703300e-01
35 3 2.00407866530324330e-01
36 3 2.07547169811320847e-01
37 3 2.07547169811320847e-01
1 4 3.61702127659574602e-01
2 4 3.61702127659574602e-01
3 4 3.49260131032538113e-01
4 4 3.22808721687741940e-01
5 4 2.82247052343159166e-01
6 4 2.29277002132215663e-01
7 4 1.67235097800411847e-01
8 4 1.00420198491811677e-01
9 4 3.31852191099799090e-02
10 4 2.21478676441542681e-17
11 4 -3.31852191099798743e-02
12 4 -1.00420198491811677e-01
13 4 -1.67235097800411847e-01
14 4 -2.29277002132215607e-01
15 4 -2.82247052343159166e-01
16 4 -3.22808721687741995e-01
17 4 -3.49260131032538113e-01
18 4 -3.61702127659574602e-01
19 4 -3.61702127659574602e-01
20 4 -3.61702127659574602e-01
21 4 -3.49260131032538113e-01
22 4 -3.22808721687741940e-01
23 4 -2.82247052343159166e-01
24 4 -2.29277002132215663e-01
25 4 -1.67235097800411903e-01
26 4 -1.00420198491811732e-01
27 4 -3.31852191099799576e-02
28 4 -6.64436029324627982e-17
29 4 3.31852191099798188e-02
30 4 1.00420198491811608e-01
31 4 1.67235097800411736e-01
32 4 2.29277002132215579e-01
33 4 2.82247052343159166e-01
34 4 3.22808721687741995e-01
35 4 3.49260131032538113e-01
36 4 3.61702127659574602e-01
37 4 3.61702127659574602e-01
1 5 5.23809523809523947e-01
2 5 5.23809523809523947e-01
3 5 5.05791282195580449e-01
4 5 4.67484899474965188e-01
5 5 4.08744330704238823e-01
6 5 3.32034201967382314e-01
7 5 2.42186402136730899e-01
8 5 1.45426449916713246e-01
9 5 4.80581464421837856e-02
10 5 3.20740828348116436e-17
11 5 -4.80581464421837370e-02
12 5 -1.45426449916713274e-01
13 5 -2.42186402136730844e-01
14 5 -3.32034201967382203e-01
15 5 -4.08744330704238934e-01
16 5 -4.67484899474965188e-01
17 5 -5.05791282195580338e-01
18 5 -5.23809523809523947e-01
19 5 -5.23809523809523947e-01
20 5 -5.23809523809523947e-01
21 5 -5.05791282195580449e-01
22 5 -4.67484899474965188e-01
23 5 -4.08744330704238878e-01
24 5 -3.32034201967382314e-01
25 5 -2.42186402136730955e-01
26 5 -1.45426449916713330e-01
27 5 -4.80581464421838550e-02
28 5 -9.62222485044349248e-17
29 5 4.80581464421836538e-02
30 5 1.45426449916713163e-01
31 5 2.42186402136730705e-01
32 5 3.32034201967382148e-01
33 5 4.08744330704238934e-01
34 5 4.67484899474965188e-01
35 5 5.05791282195580338e-01
36 5 5.23809523809523947e-01
37 5 5.23809523809523947e-01
1 6 6.84210526315789602e-01
2 6 6.84210526315789602e-01
3 6 6.60674737030590764e-01
4 6 6.10638170127586144e-01
5 6 5.33910058766780771e-01
6 6 4.33709747067441920e-01
7 6 3.16348745374772977e-01
8 6 1.89958951326615860e-01
9 6 6.27745166445749930e-02
10 6 4.18958115497778826e-17
11 6 -6.27745166445749375e-02
12 6 -1.89958951326615888e-01
13 6 -3.16348745374772811e-01
14 6 -4.33709747067441809e-01
15 6 -5.33910058766780993e-01
16 6 -6.10638170127586255e-01
17 6 -6.60674737030590542e-01
18 6 -6.84210526315789602e-01
19 6 -6.84210526315789602e-01
20 6 -6.84210526315789602e-01
21 6 -6.60674737030590764e-01
22 6 -6.10638170127586144e-01
23 6 -5.33910058766780882e-01
24 6 -4.33709747067442031e-01
25 6 -3.16348745374773033e-01
26 6 -1.89958951326615971e-01
27 6 -6.27745166445750902e-02
28 6 -1.25687434649333648e-16
29 6 6.27745166445748265e-02
30 6 1.89958951326615777e-01
31 6 3.16348745374772644e-01
32 6 4.33709747067441753e-01
33 6 5.33910058766780993e-01
34 6 6.10638170127586255e-01
35 6 6.60674737030590542e-01
36 6 6.84210526315789602e-01
37 6 6.84210526315789602e-01
1 7 8.28571428571428625e-01
2 7 8.28571428571428625e-01
3 7 8.00069846382099992e-01
4 7 7.39476113714944927e-01
5 7 6.46559214023068707e-01
6 7 5.25217737657495576e-01
7 7 3.83094854289010800e-01
8 7 2.30038202595528235e-01
9 7 7.60192498267270866e-02
10 7 5.07353673932474983e-17
11 7 -7.60192498267270034e-02
12 7 -2.30038202595528235e-01
13 7 -3.83094854289010522e-01
14 7 -5.25217737657495576e-01
15 7 -6.46559214023068818e-01
16 7 -7.39476113714945038e-01
17 7 -8.00069846382099881e-01
18 7 -8.28571428571428625e-01
19 7 -8.28571428571428625e-01
20 7 -8.28571428571428625e-01
21 7 -8.00069846382099992e-01
22 7 -7.39476113714944927e-01
23 7 -6.46559214023068818e-01
24 7 -5.25217737657495687e-01
25 7 -3.83094854289010855e-01
26 7 -2.30038202595528346e-01
27 7 -7.60192498267271977e-02
28 7 -1.52206102179742489e-16
29 7 7.60192498267268646e-02
30 7 2.30038202595528096e-01
31 7 3.83094854289010411e-01
32 7 5.25217737657495465e-01
33 7 6.46559214023068818e-01
34 7 7.39476113714945038e-01
35 7 8.00069846382099881e-01
36 7 8.28571428571428625e-01
37 7 8.28571428571428625e-01
1 8 9.39393939393939448e-01
2 8 9.39393939393939448e-01
3 8 9.07080233359016330e-01
4 8 8.38382009802210226e-01
5 8 7.33037353411734038e-01
6 8 5.95466296090264025e-01
7 8 4.34334291435294340e-01
8 8 2.60806112660551870e-01
9 8 8.61869237847428249e-02
10 8 5.75212890508605403e-17
11 8 -8.61869237847427416e-02
12 8 -2.60806112660551870e-01
13 8 -4.34334291435294007e-01
14 8 -5.95466296090264136e-01
15 8 -7.33037353411734260e-01
16 8 -8.38382009802210226e-01
17 8 -9.07080233359016219e-01
18 8 -9.39393939393939448e-01
19 8 -9.39393939393939448e-01
20 8 -9.39393939393939448e-01
21 8 -9.07080233359016330e-01
22 8 -8.38382009802210226e-01
23 8 -7.33037353411734371e-01
24 8 -5.95466296090264136e-01
25 8 -4.34334291435294340e-01
26 8 -2.60806112660551981e-01
27 8 -8.61869237847429498e-02
28 8 -1.72563867152581596e-16
29 8 8.61869237847425890e-02
30 8 2.60806112660551703e-01
31 8 4.34334291435293951e-01
32 8 5.95466296090263913e-01
33 8 7.33037353411734260e-01
34 8 8.38382009802210226e-01
35 8 9.07080233359016219e-01
36 8 9.39393939393939448e-01
37 8 9.39393939393939448e-01
1 9 1.00000000000000000e+00
2 9 1.00000000000000000e+00
3 9 9.65601538737017373e-01
4 9 8.92471171724933510e-01
5 9 7.80330085889910485e-01
6 9 6.33883476483184216e-01
7 9 4.62355858624668103e-01
8 9 2.77632313477361670e-01
9 9 9.17473704805326778e-02
10 9 6.12323399573676727e-17
11 9 -9.17473704805325946e-02
12 9 -2.77632313477361670e-01
13 9 -4.62355858624667826e-01
14 9 -6.33883476483184438e-01
15 9 -7.80330085889910707e-01
16 9 -8.92471171724933510e-01
17 9 -9.65601538737017373e-01
18 9 -1.00000000000000000e+00
19 9 -1.00000000000000000e+00
20 9 -1.00000000000000000e+00
21 9 -9.65601538737017373e-01
22 9 -8.92471171724933510e-01
23 9 -7.80330085889910929e-01
24 9 -6.33883476483184327e-01
25 9 -4.62355858624668103e-01
26 9 -2.77632313477361781e-01
27 9 -9.17473704805328028e-02
28 9 -1.83697019872102993e-16
29 9 9.17473704805324280e-02
30 9 2.77632313477361503e-01
31 9 4.62355858624667715e-01
32 9 6.33883476483184105e-01
33 9 7.80330085889910596e-01
34 9 8.92471171724933510e-01
35 9 9.65601538737017373e-01
36 9 1.00000000000000000e+00
37 9 1.00000000000000000e+00
1 10 1.00000000000000000e+00
2 10 1.00000000000000000e+00
3 10 9.65601538737017373e-01
4 10 8.92471171724933510e-01
5 10 7.80330085889910485e-01
6 10 6.33883476483184327e-01
7 10 4.62355858624668103e-01
8 10 2.77632313477361725e-01
9 10 9.17473704805326778e-02
10 10 6.12323399573676727e-17
11 10 -9.17473704805325946e-02
12 10 -2.77632313477361670e-01
13 10 -4.62355858624667826e-01
14 10 -6.33883476483184438e-01
15 10 -7.80330085889910818e-01
16 10 -8.92471171724933510e-01
17 10 -9.65601538737017373e-01
18 10 -1.00000000000000000e+00
19 10 -1.00000000000000000e+00
20 10 -1.00000000000000000e+00
21 10 -9.65601538737017373e-01
22 10 -8.92471171724933621e-01
23 10 -7.80330085889911040e-01
24 10 -6.33883476483184327e-01
25 10 -4.62355858624668103e-01
26 10 -2.77632313477361781e-01
27 10 -9.17473704805328028e-02
28 10 -1.83697019872102993e-16
29 10 9.17473704805324280e-02
30 10 2.77632313477361503e-01
31 10 4.62355858624667715e-01
32 10 6.33883476483184105e-01
33 10 7.80330085889910596e-01
34 10 8.92471171724933510e-01
35 10 9.65601538737017373e-01
36 10 1.00000000000000000e+00
37 10 1.00000000000000000e+00
1 11 9.39393939393939448e-01
2 11 9.39393939393939337e-01
3 11 9.07080233359016219e-01
4 11 8.38382009802210226e-01
5 11 7.33037353411733927e-01
6 11 5.95466296090264025e-01
7 11 4.34334291435294284e-01
8 11 2.60806112660551870e-01
9 11 8.61869237847428249e-02
10 11 5.75212890508605403e-17
11 11 -8.61869237847427416e-02
12 11 -2.60806112660551870e-01
13 11 -4.34334291435294007e-01
14 11 -5.95466296090264136e-01
15 11 -7.33037353411734371e-01
16 11 -8.38382009802210226e-01
17 11 -9.07080233359016219e-01
18 11 -9.39393939393939337e-01
19 11 -9.39393939393939448e-01
20 11 -9.39393939393939337e-01
21 11 -9.07080233359016219e-01
22 11 -8.38382009802210448e-01
23 11 -7.33037353411734482e-01
24 11 -5.95466296090264025e-01
25 11 -4.34334291435294340e-01
26 11 -2.60806112660551981e-01
27 11 -8.61869237847429359e-02
28 11 -1.72563867152581596e-16
29 11 8.61869237847425890e-02
30 11 2.60806112660551703e-01
31 11 4.34334291435293951e-01
32 11 5.95466296090263913e-01
33 11 7.33037353411734038e-01
34 11 8.38382009802210226e-01
35 11 9.07080233359016219e-01
36 11 9.39393939393939337e-01
37 11 9.39393939393939448e-01
1 12 8.28571428571428625e-01
2 12 8.28571428571428514e-01
3 12 8.00069846382099992e-01
4 12 7.39476113714944816e-01
5 12 6.46559214023068596e-01
6 12 5.25217737657495576e-01
7 12 3.83094854289010578e-01
8 12 2.30038202595528291e-01
9 12 7.60192498267270866e-02
10 12 5.07353673932474983e-17
11 12 -7.60192498267270034e-02
12 12 -2.30038202595528263e-01
13 12 -3.83094854289010411e-01
14 12 -5.25217737657495576e-01
15 12 -6.46559214023068929e-01
16 12 -7.39476113714944816e-01
17 12 -8.00069846382099992e-01
18 12 -8.28571428571428514e-01
19 12 -8.28571428571428625e-01
20 12 -8.28571428571428514e-01
21 12 -8.00069846382099992e-01
22 12 -7.39476113714945038e-01
23 12 -6.46559214023068929e-01
24 12 -5.25217737657495576e-01
25 12 -3.83094854289010744e-01
26 12 -2.30038202595528346e-01
27 12 -7.60192498267271977e-02
28 12 -1.52206102179742489e-16
29 12 7.60192498267268785e-02
30 12 2.30038202595528096e-01
31 12 3.83094854289010411e-01
32 12 5.25217737657495576e-01
33 12 6.46559214023068707e-01
34 12 7.39476113714944816e-01
35 12 8.00069846382099992e-01
36 12 8.28571428571428514e-01
37 12 8.28571428571428625e-01
1 13 6.84210526315789491e-01
2 13 6.84210526315789491e-01
3 13 6.60674737030590764e-01
4 13 6.10638170127586033e-01
5 13 5.33910058766780771e-01
6 13 4.33709747067441920e-01
7 13 3.16348745374772811e-01
8 13 1.89958951326615888e-01
9 13 6.27745166445750069e-02
10 13 4.18958115497778764e-17
11 13 -6.27745166445749236e-02
12 13 -1.89958951326615888e-01
13 13 -3.16348745374772700e-01
14 13 -4.33709747067441920e-01
15 13 -5.33910058766780993e-01
16 13 -6.10638170127586033e-01
17 13 -6.60674737030590653e-01
18 13 -6.84210526315789491e-01
19 13 -6.84210526315789491e-01
20 13 -6.84210526315789491e-01
21 13 -6.60674737030590764e-01
22 13 -6.10638170127586255e-01
23 13 -5.33910058766780993e-01
24 13 -4.33709747067441920e-01
25 13 -3.16348745374772922e-01
26 13 -1.89958951326615944e-01
27 13 -6.27745166445750902e-02
28 13 -1.25687434649333599e-16
29 13 6.27745166445748265e-02
30 13 1.89958951326615721e-01
31 13 3.16348745374772700e-01
32 13 4.33709747067441864e-01
33 13 5.33910058766780882e-01
34 13 6.10638170127586033e-01
35 13 6.60674737030590653e-01
36 13 6.84210526315789491e-01
37 13 6.84210526315789491e-01
1 14 5.23809523809523836e-01
2 14 5.23809523809523836e-01
3 14 5.05791282195580449e-01
4 14 4.67484899474965077e-01
5 14 4.08744330704238712e-01
6 14 3.32034201967382259e-01
7 14 2.42186402136730844e-01
8 14 1.45426449916713274e-01
9 14 4.80581464421838064e-02
10 14 3.20740828348116313e-17
11 14 -4.80581464421837370e-02
12 14 -1.45426449916713274e-01
13 14 -2.42186402136730788e-01
14 14 -3.32034201967382203e-01
15 14 -4.08744330704238823e-01
16 14 -4.67484899474965021e-01
17 14 -5.05791282195580449e-01
18 14 -5.23809523809523836e-01
19 14 -5.23809523809523836e-01
20 14 -5.23809523809523836e-01
21 14 -5.05791282195580449e-01
22 14 -4.67484899474965299e-01
23 14 -4.08744330704238878e-01
24 14 -3.32034201967382259e-01
25 14 -2.42186402136730899e-01
26 14 -1.45426449916713302e-01
27 14 -4.80581464421838619e-02
28 14 -9.62222485044348878e-17
29 14 4.80581464421836538e-02
30 14 1.45426449916713135e-01
31 14 2.42186402136730788e-01
32 14 3.32034201967382203e-01
33 14 4.08744330704238767e-01
34 14 4.67484899474965021e-01
35 14 5.05791282195580449e-01
36 14 5.23809523809523836e-01
37 14 5.23809523809523836e-01
1 15 3.61702127659574491e-01
2 15 3.61702127659574435e-01
3 15 3.49260131032538168e-01
4 15 3.22808721687741884e-01
5 15 2.82247052343159111e-01
6 15 2.29277002132215607e-01
7 15 1.67235097800411847e-01
8 15 1.00420198491811691e-01
9 15 3.31852191099799160e-02
10 15 2.21478676441542620e-17
11 15 -3.31852191099798743e-02
12 15 -1.00420198491811649e-01
13 15 -1.67235097800411792e-01
14 15 -2.29277002132215579e-01
15 15 -2.82247052343159111e-01
16 15 -3.22808721687741829e-01
17 15 -3.49260131032538168e-01
18 15 -3.61702127659574435e-01
19 15 -3.61702127659574491e-01
20 15 -3.61702127659574435e-01
21 15 -3.49260131032538168e-01
22 15 -3.22808721687741940e-01
23 15 -2.82247052343159166e-01
24 15 -2.29277002132215607e-01
25 15 -1.67235097800411875e-01
26 15 -1.00420198491811719e-01
27 15 -3.31852191099799576e-02
28 15 -6.64436029324627736e-17
29 15 3.31852191099798119e-02
30 15 1.00420198491811594e-01
31 15 1.67235097800411764e-01
32 15 2.29277002132215579e-01
33 15 2.82247052343159055e-01
34 15 3.22808721687741829e-01
35 15 3.49260131032538168e-01
36 15 3.61702127659574435e-01
37 15 3.61702127659574491e-01
1 16 2.07547169811320764e-01
2 16 2.07547169811320764e-01
3 16 2.00407866530324330e-01
4 16 1.85229865829703161e-01
5 16 1.61955300845075784e-01
6 16 1.31560721534245806e-01
7 16 9.59606499032329835e-02
8 16 5.76218009103958359e-02
9 16 1.90419070808652766e-02
10 16 1.27085988590763079e-17
11 16 -1.90419070808652523e-02
12 16 -5.76218009103958151e-02
13 16 -9.59606499032329557e-02
14 16 -1.31560721534245806e-01
15 16 -1.61955300845075756e-01
16 16 -1.85229865829703161e-01
17 16 -2.00407866530324330e-01
18 16 -2.07547169811320764e-01
19 16 -2.07547169811320764e-01
20 16 -2.07547169811320764e-01
21 16 -2.00407866530324330e-01
22 16 -1.85229865829703189e-01
23 16 -1.61955300845075811e-01
24 16 -1.31560721534245806e-01
25 16 -9.59606499032330112e-02
26 16 -5.76218009103958637e-02
27 16 -1.90419070808653043e-02
28 16 -3.81257965772289159e-17
29 16 1.90419070808652210e-02
30 16 5.76218009103957873e-02
31 16 9.59606499032329419e-02
32 16 1.31560721534245778e-01
33 16 1.61955300845075728e-01
34 16 1.85229865829703161e-01
35 16 2.00407866530324330e-01
36 16 2.07547169811320764e-01
37 16 2.07547169811320764e-01
1 17 6.66666666666666657e-02
2 17 6.66666666666666657e-02
3 17 6.43734359158011499e-02
4 17 5.94980781149955576e-02
5 17 5.20220057259940388e-02
6 17 4.22588984322122899e-02
7 17 3.08237239083111979e-02
8 17 1.85088208984907840e-02
9 17 6.11649136536884536e-03
10 17 4.08215599715784397e-18
11 17 -6.11649136536883756e-03
12 17 -1.85088208984907771e-02
13 17 -3.08237239083111944e-02
14 17 -4.22588984322122899e-02
15 17 -5.20220057259940319e-02
16 17 -5.94980781149955645e-02
17 17 -6.43734359158011360e-02
18 17 -6.66666666666666657e-02
19 17 -6.66666666666666657e-02
20 17 -6.66666666666666657e-02
21 17 -6.43734359158011499e-02
22 17 -5.94980781149955715e-02
23 17 -5.20220057259940458e-02
24 17 -4.22588984322122968e-02
25 17 -3.08237239083112083e-02
26 17 -1.85088208984907909e-02
27 17 -6.11649136536885404e-03
28 17 -1.22464679914735311e-17
29 17 6.11649136536882802e-03
30 17 1.85088208984907701e-02
31 17 3.08237239083111875e-02
32 17 4.22588984322122829e-02
33 17 5.20220057259940249e-02
34 17 5.94980781149955645e-02
35 17 6.43734359158011360e-02
36 17 6.66666666666666657e-02
37 17 6.66666666666666657e-02
1 18 0.00000000000000000e+00
2 18 0.00000000000000000e+00
3 18 0.00000000000000000e+00
4 18 0.00000000000000000e+00
5 18 0.00000000000000000e+00
6 18 0.00000000000000000e+00
7 18 0.00000000000000000e+00
8 18 0.00000000000000000e+00
9 18 0.00000000000000000e+00
10 18 0.00000000000000000e+00
11 18 0.00000000000000000e+00
12 18 0.00000000000000000e+00
13 18 0.00000000000000000e+00
14 18 0.00000000000000000e+00
15 18 0.00000000000000000e+00
16 18 0.00000000000000000e+00
17 18 0.00000000000000000e+00
18 18 0.00000000000000000e+00
19 18 0.00000000000000000e+00
20 18 0.00000000000000000e+00
21 18 0.00000000000000000e+00
22 18 0.00000000000000000e+00
23 18 0.00000000000000000e+00
24 18 0.00000000000000000e+00
25 18 0.00000000000000000e+00
26 18 0.00000000000000000e+00
27 18 0.00000000000000000e+00
28 18 0.00000000000000000e+00
29 18 0.00000000000000000e+00
30 18 0.00000000000000000e+00
31 18 0.00000000000000000e+00
32 18 0.00000000000000000e+00
33 18 0.00000000000000000e+00
34 18 0.00000000000000000e+00
35 18 0.00000000000000000e+00
36 18 0.00000000000000000e+00
37 18 0.00000000000000000e+00
