%%MatrixMarket matrix coordinate  real general
37 18 666
1 1 0.00000000000000000e+00
2 1 0.00000000000000000e+00
3 1 0.00000000000000000e+00
4 1 0.00000000000000000e+00
5 1 0.00000000000000000e+00
6 1 0.00000000000000000e+00
7 1 0.00000000000000000e+00
8 1 0.00000000000000000e+00
9 1 0.00000000000000000e+00
10 1 0.00000000000000000e+00
11 1 0.00000000000000000e+00
12 1 0.00000000000000000e+00
13 1 0.00000000000000000e+00
14 1 0.00000000000000000e+00
15 1 0.00000000000000000e+00
16 1 0.00000000000000000e+00
17 1 0.00000000000000000e+00
18 1 0.00000000000000000e+00
19 1 0.00000000000000000e+00
20 1 0.00000000000000000e+00
21 1 0.00000000000000000e+00
22 1 0.00000000000000000e+00
23 1 0.00000000000000000e+00
24 1 0.00000000000000000e+00
25 1 0.00000000000000000e+00
26 1 0.00000000000000000e+00
27 1 0.00000000000000000e+00
28 1 0.00000000000000000e+00
29 1 0.00000000000000000e+00
30 1 0.00000000000000000e+00
31 1 0.00000000000000000e+00
32 1 0.00000000000000000e+00
33 1 0.00000000000000000e+00
34 1 0.00000000000000000e+00
35 1 0.00000000000000000e+00
36 1 0.00000000000000000e+00
37 1 0.00000000000000000e+00
1 2 0.00000000000000000e+00
2 2 -6.11649136536884363e-03
3 2 -1.85088208984907805e-02
4 2 -3.08237239083112048e-02
5 2 -4.22588984322123037e-02
6 2 -5.20220057259940458e-02
7 2 -5.94980781149956062e-02
8 2 -6.43734359158011499e-02
9 2 -6.66666666666666935e-02
10 2 -6.66666666666666935e-02
11 2 -6.66666666666666935e-02
12 2 -6.43734359158011360e-02
13 2 -5.94980781149955784e-02
14 2 -5.20220057259940527e-02
15 2 -4.22588984322122968e-02
16 2 -3.08237239083112083e-02
17 2 -1.85088208984907909e-02
18 2 -6.11649136536885057e-03
19 2 -8.16431199431568949e-18
20 2 6.11649136536883669e-03
21 2 1.85088208984907771e-02
22 2 3.08237239083112048e-02
23 2 4.22588984322123037e-02
24 2 5.20220057259940458e-02
25 2 5.94980781149956062e-02
26 2 6.43734359158011499e-02
27 2 6.66666666666666935e-02
28 2 6.66666666666666935e-02
29 2 6.66666666666666935e-02
30 2 6.43734359158011360e-02
31 2 5.94980781149955923e-02
32 2 5.20220057259940666e-02
33 2 4.22588984322122968e-02
34 2 3.08237239083112187e-02
35 2 1.85088208984908083e-02
36 2 6.11649136536886011e-03
37 2 1.63286239886313790e-17
1 3 0.00000000000000000e+00
2 3 -1.90419070808652696e-02
3 3 -5.76218009103958220e-02
4 3 -9.59606499032329835e-02
5 3 -1.31560721534245834e-01
6 3 -1.61955300845075784e-01
7 3 -1.85229865829703300e-01
8 3 -2.00407866530324330e-01
9 3 -2.07547169811320847e-01
10 3 -2.07547169811320847e-01
11 3 -2.07547169811320847e-01
12 3 -2.00407866530324330e-01
13 3 -1.85229865829703216e-01
14 3 -1.61955300845075784e-01
15 3 -1.31560721534245834e-01
16 3 -9.59606499032330251e-02
17 3 -5.76218009103958498e-02
18 3 -1.90419070808652870e-02
19 3 -2.54171977181526189e-17
20 3 1.90419070808652453e-02
21 3 5.76218009103958151e-02
22 3 9.59606499032329835e-02
23 3 1.31560721534245834e-01
24 3 1.61955300845075784e-01
25 3 1.85229865829703300e-01
26 3 2.00407866530324330e-01
27 3 2.07547169811320847e-01
28 3 2.07547169811320847e-01
29 3 2.07547169811320847e-01
30 3 2.00407866530324330e-01
31 3 1.85229865829703216e-01
32 3 1.61955300845075839e-01
33 3 1.31560721534245834e-01
34 3 9.59606499032330390e-02
35 3 5.76218009103958984e-02
36 3 1.90419070808653182e-02
37 3 5.08343954363052377e-17
1 4 0.00000000000000000e+00
2 4 -3.31852191099798952e-02
3 4 -1.00420198491811677e-01
4 4 -1.67235097800411847e-01
5 4 -2.29277002132215607e-01
6 4 -2.82247052343159166e-01
7 4 -3.22808721687741995e-01
8 4 -3.49260131032538113e-01
9 4 -3.61702127659574602e-01
10 4 -3.61702127659574602e-01
11 4 -3.61702127659574602e-01
12 4 -3.49260131032538113e-01
13 4 -3.22808721687741940e-01
14 4 -2.82247052343159166e-01
15 4 -2.29277002132215663e-01
16 4 -1.67235097800411847e-01
17 4 -1.00420198491811719e-01
18 4 -3.31852191099799299e-02
19 4 -4.42957352883085363e-17
20 4 3.31852191099798605e-02
21 4 1.00420198491811649e-01
22 4 1.67235097800411847e-01
23 4 2.29277002132215607e-01
24 4 2.82247052343159166e-01
25 4 3.22808721687741995e-01
26 4 3.49260131032538113e-01
27 4 3.61702127659574602e-01
28 4 3.61702127659574602e-01
29 4 3.61702127659574602e-01
30 4 3.49260131032538113e-01
31 4 3.22808721687741940e-01
32 4 2.82247052343159166e-01
33 4 2.29277002132215663e-01
34 4 1.67235097800411903e-01
35 4 1.00420198491811802e-01
36 4 3.31852191099799784e-02
37 4 8.85914705766170725e-17
1 5 0.00000000000000000e+00
2 5 -4.80581464421837648e-02
3 5 -1.45426449916713274e-01
4 5 -2.42186402136730844e-01
5 5 -3.32034201967382203e-01
6 5 -4.08744330704238934e-01
7 5 -4.67484899474965188e-01
8 5 -5.05791282195580338e-01
9 5 -5.23809523809523947e-01
10 5 -5.23809523809523947e-01
11 5 -5.23809523809523947e-01
12 5 -5.05791282195580449e-01
13 5 -4.67484899474965188e-01
14 5 -4.08744330704238823e-01
15 5 -3.32034201967382314e-01
16 5 -2.42186402136730899e-01
17 5 -1.45426449916713302e-01
18 5 -4.80581464421838203e-02
19 5 -6.41481656696232873e-17
20 5 4.80581464421837232e-02
21 5 1.45426449916713246e-01
22 5 2.42186402136730844e-01
23 5 3.32034201967382203e-01
24 5 4.08744330704238934e-01
25 5 4.67484899474965188e-01
26 5 5.05791282195580338e-01
27 5 5.23809523809523947e-01
28 5 5.23809523809523947e-01
29 5 5.23809523809523947e-01
30 5 5.05791282195580449e-01
31 5 4.67484899474965188e-01
32 5 4.08744330704238878e-01
33 5 3.32034201967382314e-01
34 5 2.42186402136730955e-01
35 5 1.45426449916713413e-01
36 5 4.80581464421838828e-02
37 5 1.28296331339246575e-16
1 6 0.00000000000000000e+00
2 6 -6.27745166445749653e-02
3 6 -1.89958951326615888e-01
4 6 -3.16348745374772811e-01
5 6 -4.33709747067441809e-01
6 6 -5.33910058766780993e-01
7 6 -6.10638170127586255e-01
8 6 -6.60674737030590542e-01
9 6 -6.84210526315789602e-01
10 6 -6.84210526315789602e-01
11 6 -6.84210526315789602e-01
12 6 -6.60674737030590764e-01
13 6 -6.10638170127586144e-01
14 6 -5.33910058766780771e-01
15 6 -4.33709747067441920e-01
16 6 -3.16348745374772977e-01
17 6 -1.89958951326615944e-01
18 6 -6.27745166445750347e-02
19 6 -8.37916230995557652e-17
20 6 6.27745166445749098e-02
21 6 1.89958951326615860e-01
22 6 3.16348745374772811e-01
23 6 4.33709747067441809e-01
24 6 5.33910058766780993e-01
25 6 6.10638170127586255e-01
26 6 6.60674737030590542e-01
27 6 6.84210526315789602e-01
28 6 6.84210526315789602e-01
29 6 6.84210526315789602e-01
30 6 6.60674737030590764e-01
31 6 6.10638170127586144e-01
32 6 5.33910058766780882e-01
33 6 4.33709747067442031e-01
34 6 3.16348745374773033e-01
35 6 1.89958951326616110e-01
36 6 6.27745166445751179e-02
37 6 1.67583246199111530e-16
1 7 0.00000000000000000e+00
2 7 -7.60192498267270450e-02
3 7 -2.30038202595528235e-01
4 7 -3.83094854289010522e-01
5 7 -5.25217737657495576e-01
6 7 -6.46559214023068818e-01
7 7 -7.39476113714945038e-01
8 7 -8.00069846382099881e-01
9 7 -8.28571428571428625e-01
10 7 -8.28571428571428625e-01
11 7 -8.28571428571428625e-01
12 7 -8.00069846382099992e-01
13 7 -7.39476113714944927e-01
14 7 -6.46559214023068707e-01
15 7 -5.25217737657495576e-01
16 7 -3.83094854289010800e-01
17 7 -2.30038202595528318e-01
18 7 -7.60192498267271283e-02
19 7 -1.01470734786494997e-16
20 7 7.60192498267269895e-02
21 7 2.30038202595528180e-01
22 7 3.83094854289010522e-01
23 7 5.25217737657495576e-01
24 7 6.46559214023068818e-01
25 7 7.39476113714945038e-01
26 7 8.00069846382099881e-01
27 7 8.28571428571428625e-01
28 7 8.28571428571428625e-01
29 7 8.28571428571428625e-01
30 7 8.00069846382099992e-01
31 7 7.39476113714944927e-01
32 7 6.46559214023068818e-01
33 7 5.25217737657495687e-01
34 7 3.83094854289010855e-01
35 7 2.30038202595528540e-01
36 7 7.60192498267272254e-02
37 7 2.02941469572989993e-16
1 8 0.00000000000000000e+00
2 8 -8.61869237847427694e-02
3 8 -2.60806112660551870e-01
4 8 -4.34334291435294007e-01
5 8 -5.95466296090264136e-01
6 8 -7.33037353411734260e-01
7 8 -8.38382009802210226e-01
8 8 -9.07080233359016219e-01
9 8 -9.39393939393939448e-01
10 8 -9.39393939393939448e-01
11 8 -9.39393939393939448e-01
12 8 -9.07080233359016330e-01
13 8 -8.38382009802210226e-01
14 8 -7.33037353411734038e-01
15 8 -5.95466296090264025e-01
16 8 -4.34334291435294340e-01
17 8 -2.60806112660551981e-01
18 8 -8.61869237847428804e-02
19 8 -1.15042578101721081e-16
20 8 8.61869237847427277e-02
21 8 2.60806112660551814e-01
22 8 4.34334291435294007e-01
23 8 5.95466296090264136e-01
24 8 7.33037353411734260e-01
25 8 8.38382009802210226e-01
26 8 9.07080233359016219e-01
27 8 9.39393939393939448e-01
28 8 9.39393939393939448e-01
29 8 9.39393939393939448e-01
30 8 9.07080233359016330e-01
31 8 8.38382009802210226e-01
32 8 7.33037353411734371e-01
33 8 5.95466296090264136e-01
34 8 4.34334291435294340e-01
35 8 2.60806112660552203e-01
36 8 8.61869237847429776e-02
37 8 2.30085156203442161e-16
1 9 0.00000000000000000e+00
2 9 -9.17473704805326085e-02
3 9 -2.77632313477361670e-01
4 9 -4.62355858624667826e-01
5 9 -6.33883476483184438e-01
6 9 -7.80330085889910707e-01
7 9 -8.92471171724933510e-01
8 9 -9.65601538737017373e-01
9 9 -1.00000000000000000e+00
10 9 -1.00000000000000000e+00
11 9 -1.00000000000000000e+00
12 9 -9.65601538737017373e-01
13 9 -8.92471171724933510e-01
14 9 -7.80330085889910485e-01
15 9 -6.33883476483184216e-01
16 9 -4.62355858624668103e-01
17 9 -2.77632313477361781e-01
18 9 -9.17473704805327195e-02
19 9 -1.22464679914735345e-16
20 9 9.17473704805325668e-02
21 9 2.77632313477361614e-01
22 9 4.62355858624667826e-01
23 9 6.33883476483184438e-01
24 9 7.80330085889910707e-01
25 9 8.92471171724933510e-01
26 9 9.65601538737017373e-01
27 9 1.00000000000000000e+00
28 9 1.00000000000000000e+00
29 9 1.00000000000000000e+00
30 9 9.65601538737017373e-01
31 9 8.92471171724933510e-01
32 9 7.80330085889910929e-01
33 9 6.33883476483184327e-01
34 9 4.62355858624668103e-01
35 9 2.77632313477362058e-01
36 9 9.17473704805328444e-02
37 9 2.44929359829470691e-16
1 10 0.00000000000000000e+00
2 10 -9.17473704805326085e-02
3 10 -2.77632313477361670e-01
4 10 -4.62355858624667826e-01
5 10 -6.33883476483184438e-01
6 10 -7.80330085889910818e-01
7 10 -8.92471171724933510e-01
8 10 -9.65601538737017373e-01
9 10 -1.00000000000000000e+00
10 10 -1.00000000000000000e+00
11 10 -1.00000000000000000e+00
12 10 -9.65601538737017373e-01
13 10 -8.92471171724933510e-01
14 10 -7.80330085889910485e-01
15 10 -6.33883476483184327e-01
16 10 -4.62355858624668103e-01
17 10 -2.77632313477361781e-01
18 10 -9.17473704805327195e-02
19 10 -1.22464679914735345e-16
20 10 9.17473704805325668e-02
21 10 2.77632313477361614e-01
22 10 4.62355858624667826e-01
23 10 6.33883476483184438e-01
24 10 7.80330085889910818e-01
25 10 8.92471171724933510e-01
26 10 9.65601538737017373e-01
27 10 1.00000000000000000e+00
28 10 1.00000000000000000e+00
29 10 1.00000000000000000e+00
30 10 9.65601538737017373e-01
31 10 8.92471171724933621e-01
32 10 7.80330085889911040e-01
33 10 6.33883476483184327e-01
34 10 4.62355858624668103e-01
35 10 2.77632313477362058e-01
36 10 9.17473704805328444e-02
37 10 2.44929359829470691e-16
1 11 0.00000000000000000e+00
2 11 -8.61869237847427555e-02
3 11 -2.60806112660551870e-01
4 11 -4.34334291435294007e-01
5 11 -5.95466296090264136e-01
6 11 -7.33037353411734371e-01
7 11 -8.38382009802210226e-01
8 11 -9.07080233359016219e-01
9 11 -9.39393939393939337e-01
10 11 -9.39393939393939448e-01
11 11 -9.39393939393939337e-01
12 11 -9.07080233359016219e-01
13 11 -8.38382009802210226e-01
14 11 -7.33037353411733927e-01
15 11 -5.95466296090264025e-01
16 11 -4.34334291435294284e-01
17 11 -2.60806112660551981e-01
18 11 -8.61869237847428526e-02
19 11 -1.15042578101721081e-16
20 11 8.61869237847427139e-02
21 11 2.60806112660551814e-01
22 11 4.34334291435294007e-01
23 11 5.95466296090264136e-01
24 11 7.33037353411734371e-01
25 11 8.38382009802210226e-01
26 11 9.07080233359016219e-01
27 11 9.39393939393939337e-01
28 11 9.39393939393939448e-01
29 11 9.39393939393939337e-01
30 11 9.07080233359016219e-01
31 11 8.38382009802210448e-01
32 11 7.33037353411734482e-01
33 11 5.95466296090264025e-01
34 11 4.34334291435294340e-01
35 11 2.60806112660552203e-01
36 11 8.61869237847429776e-02
37 11 2.30085156203442161e-16
1 12 0.00000000000000000e+00
2 12 -7.60192498267270172e-02
3 12 -2.30038202595528263e-01
4 12 -3.83094854289010411e-01
5 12 -5.25217737657495576e-01
6 12 -6.46559214023068929e-01
7 12 -7.39476113714944816e-01
8 12 -8.00069846382099992e-01
9 12 -8.28571428571428514e-01
10 12 -8.28571428571428625e-01
11 12 -8.28571428571428514e-01
12 12 -8.00069846382099992e-01
13 12 -7.39476113714944816e-01
14 12 -6.46559214023068596e-01
15 12 -5.25217737657495576e-01
16 12 -3.83094854289010578e-01
17 12 -2.30038202595528346e-01
18 12 -7.60192498267271144e-02
19 12 -1.01470734786494997e-16
20 12 7.60192498267269756e-02
21 12 2.30038202595528180e-01
22 12 3.83094854289010411e-01
23 12 5.25217737657495576e-01
24 12 6.46559214023068929e-01
25 12 7.39476113714944816e-01
26 12 8.00069846382099992e-01
27 12 8.28571428571428514e-01
28 12 8.28571428571428625e-01
29 12 8.28571428571428514e-01
30 12 8.00069846382099992e-01
31 12 7.39476113714945038e-01
32 12 6.46559214023068929e-01
33 12 5.25217737657495576e-01
34 12 3.83094854289010744e-01
35 12 2.30038202595528540e-01
36 12 7.60192498267272254e-02
37 12 2.02941469572989993e-16
1 13 0.00000000000000000e+00
2 13 -6.27745166445749514e-02
3 13 -1.89958951326615888e-01
4 13 -3.16348745374772700e-01
5 13 -4.33709747067441920e-01
6 13 -5.33910058766780993e-01
7 13 -6.10638170127586033e-01
8 13 -6.60674737030590653e-01
9 13 -6.84210526315789491e-01
10 13 -6.84210526315789491e-01
11 13 -6.84210526315789491e-01
12 13 -6.60674737030590764e-01
13 13 -6.10638170127586033e-01
14 13 -5.33910058766780771e-01
15 13 -4.33709747067441920e-01
16 13 -3.16348745374772811e-01
17 13 -1.89958951326615944e-01
18 13 -6.27745166445750208e-02
19 13 -8.37916230995557529e-17
20 13 6.27745166445748959e-02
21 13 1.89958951326615832e-01
22 13 3.16348745374772700e-01
23 13 4.33709747067441920e-01
24 13 5.33910058766780993e-01
25 13 6.10638170127586033e-01
26 13 6.60674737030590653e-01
27 13 6.84210526315789491e-01
28 13 6.84210526315789491e-01
29 13 6.84210526315789491e-01
30 13 6.60674737030590764e-01
31 13 6.10638170127586255e-01
32 13 5.33910058766780993e-01
33 13 4.33709747067441920e-01
34 13 3.16348745374772922e-01
35 13 1.89958951326616110e-01
36 13 6.27745166445751179e-02
37 13 1.67583246199111506e-16
1 14 0.00000000000000000e+00
2 14 -4.80581464421837509e-02
3 14 -1.45426449916713274e-01
4 14 -2.42186402136730788e-01
5 14 -3.32034201967382203e-01
6 14 -4.08744330704238823e-01
7 14 -4.67484899474965021e-01
8 14 -5.05791282195580449e-01
9 14 -5.23809523809523836e-01
10 14 -5.23809523809523836e-01
11 14 -5.23809523809523836e-01
12 14 -5.05791282195580449e-01
13 14 -4.67484899474965077e-01
14 14 -4.08744330704238712e-01
15 14 -3.32034201967382259e-01
16 14 -2.42186402136730844e-01
17 14 -1.45426449916713302e-01
18 14 -4.80581464421838134e-02
19 14 -6.41481656696232626e-17
20 14 4.80581464421837162e-02
21 14 1.45426449916713219e-01
22 14 2.42186402136730788e-01
23 14 3.32034201967382203e-01
24 14 4.08744330704238823e-01
25 14 4.67484899474965021e-01
26 14 5.05791282195580449e-01
27 14 5.23809523809523836e-01
28 14 5.23809523809523836e-01
29 14 5.23809523809523836e-01
30 14 5.05791282195580449e-01
31 14 4.67484899474965299e-01
32 14 4.08744330704238878e-01
33 14 3.32034201967382259e-01
34 14 2.42186402136730899e-01
35 14 1.45426449916713413e-01
36 14 4.80581464421838828e-02
37 14 1.28296331339246525e-16
1 15 0.00000000000000000e+00
2 15 -3.31852191099798813e-02
3 15 -1.00420198491811649e-01
4 15 -1.67235097800411792e-01
5 15 -2.29277002132215579e-01
6 15 -2.82247052343159111e-01
7 15 -3.22808721687741829e-01
8 15 -3.49260131032538168e-01
9 15 -3.61702127659574435e-01
10 15 -3.61702127659574491e-01
11 15 -3.61702127659574435e-01
12 15 -3.49260131032538168e-01
13 15 -3.22808721687741884e-01
14 15 -2.82247052343159111e-01
15 15 -2.29277002132215607e-01
16 15 -1.67235097800411847e-01
17 15 -1.00420198491811719e-01
18 15 -3.31852191099799299e-02
19 15 -4.42957352883085239e-17
20 15 3.31852191099798535e-02
21 15 1.00420198491811635e-01
22 15 1.67235097800411792e-01
23 15 2.29277002132215579e-01
24 15 2.82247052343159111e-01
25 15 3.22808721687741829e-01
26 15 3.49260131032538168e-01
27 15 3.61702127659574435e-01
28 15 3.61702127659574491e-01
29 15 3.61702127659574435e-01
30 15 3.49260131032538168e-01
31 15 3.22808721687741940e-01
32 15 2.82247052343159166e-01
33 15 2.29277002132215607e-01
34 15 1.67235097800411875e-01
35 15 1.00420198491811774e-01
36 15 3.31852191099799715e-02
37 15 8.85914705766170479e-17
1 16 0.00000000000000000e+00
2 16 -1.90419070808652592e-02
3 16 -5.76218009103958151e-02
4 16 -9.59606499032329557e-02
5 16 -1.31560721534245806e-01
6 16 -1.61955300845075756e-01
7 16 -1.85229865829703161e-01
8 16 -2.00407866530324330e-01
9 16 -2.07547169811320764e-01
10 16 -2.07547169811320764e-01
11 16 -2.07547169811320764e-01
12 16 -2.00407866530324330e-01
13 16 -1.85229865829703161e-01
14 16 -1.61955300845075784e-01
15 16 -1.31560721534245806e-01
16 16 -9.59606499032329835e-02
17 16 -5.76218009103958498e-02
18 16 -1.90419070808652870e-02
19 16 -2.54171977181526158e-17
20 16 1.90419070808652419e-02
21 16 5.76218009103958081e-02
22 16 9.59606499032329557e-02
23 16 1.31560721534245806e-01
24 16 1.61955300845075756e-01
25 16 1.85229865829703161e-01
26 16 2.00407866530324330e-01
27 16 2.07547169811320764e-01
28 16 2.07547169811320764e-01
29 16 2.07547169811320764e-01
30 16 2.00407866530324330e-01
31 16 1.85229865829703189e-01
32 16 1.61955300845075811e-01
33 16 1.31560721534245806e-01
34 16 9.59606499032330112e-02
35 16 5.76218009103958706e-02
36 16 1.90419070808653113e-02
37 16 5.08343954363052315e-17
1 17 0.00000000000000000e+00
2 17 -6.11649136536884103e-03
3 17 -1.85088208984907771e-02
4 17 -3.08237239083111944e-02
5 17 -4.22588984322122899e-02
6 17 -5.20220057259940319e-02
7 17 -5.94980781149955645e-02
8 17 -6.43734359158011360e-02
9 17 -6.66666666666666657e-02
10 17 -6.66666666666666657e-02
11 17 -6.66666666666666657e-02
12 17 -6.43734359158011499e-02
13 17 -5.94980781149955576e-02
14 17 -5.20220057259940388e-02
15 17 -4.22588984322122899e-02
16 17 -3.08237239083111979e-02
17 17 -1.85088208984907875e-02
18 17 -6.11649136536884970e-03
19 17 -8.16431199431568795e-18
20 17 6.11649136536883496e-03
21 17 1.85088208984907736e-02
22 17 3.08237239083111944e-02
23 17 4.22588984322122899e-02
24 17 5.20220057259940319e-02
25 17 5.94980781149955645e-02
26 17 6.43734359158011360e-02
27 17 6.66666666666666657e-02
28 17 6.66666666666666657e-02
29 17 6.66666666666666657e-02
30 17 6.43734359158011499e-02
31 17 5.94980781149955715e-02
32 17 5.20220057259940458e-02
33 17 4.22588984322122968e-02
34 17 3.08237239083112083e-02
35 17 1.85088208984907944e-02
36 17 6.11649136536885751e-03
37 17 1.63286239886313759e-17
1 18 0.00000000000000000e+00
2 18 0.00000000000000000e+00
3 18 0.00000000000000000e+00
4 18 0.00000000000000000e+00
5 18 0.00000000000000000e+00
6 18 0.00000000000000000e+00
7 18 0.00000000000000000e+00
8 18 0.00000000000000000e+00
9 18 0.00000000000000000e+00
10 18 0.00000000000000000e+00
11 18 0.00000000000000000e+00
12 18 0.00000000000000000e+00
13 18 0.00000000000000000e+00
14 18 0.00000000000000000e+00
15 18 0.00000000000000000e+00
16 18 0.00000000000000000e+00
17 18 0.00000000000000000e+00
18 18 0.00000000000000000e+00
19 18 0.00000000000000000e+00
20 18 0.00000000000000000e+00
21 18 0.00000000000000000e+00
22 18 0.00000000000000000e+00
23 18 0.00000000000000000e+00
24 18 0.00000000000000000e+00
25 18 0.00000000000000000e+00
26 18 0.00000000000000000e+00
27 18 0.00000000000000000e+00
28 18 0.00000000000000000e+00
29 18 0.00000000000000000e+00
30 18 0.00000000000000000e+00
31 18 0.00000000000000000e+00
32 18 0.00000000000000000e+00
33 18 0.00000000000000000e+00
34 18 0.00000000000000000e+00
35 18 0.00000000000000000e+00
36 18 0.00000000000000000e+00
37 18 0.00000000000000000e+00
