%%MatrixMarket matrix coordinate  real general
37 18 666
1 1 1.00000000000000000e+00
2 1 1.00000000000000000e+00
3 1 1.00000000000000000e+00
4 1 1.00000000000000000e+00
5 1 1.00000000000000000e+00
6 1 1.00000000000000000e+00
7 1 1.00000000000000000e+00
8 1 1.00000000000000000e+00
9 1 1.00000000000000000e+00
10 1 1.00000000000000000e+00
11 1 1.00000000000000000e+00
12 1 1.00000000000000000e+00
13 1 1.00000000000000000e+00
14 1 1.00000000000000000e+00
15 1 1.00000000000000000e+00
16 1 1.00000000000000000e+00
17 1 1.00000000000000000e+00
18 1 1.00000000000000000e+00
19 1 1.00000000000000000e+00
20 1 1.00000000000000000e+00
21 1 1.00000000000000000e+00
22 1 1.00000000000000000e+00
23 1 1.00000000000000000e+00
24 1 1.00000000000000000e+00
25 1 1.00000000000000000e+00
26 1 1.00000000000000000e+00
27 1 1.00000000000000000e+00
28 1 1.00000000000000000e+00
29 1 1.00000000000000000e+00
30 1 1.00000000000000000e+00
31 1 1.00000000000000000e+00
32 1 1.00000000000000000e+00
33 1 1.00000000000000000e+00
34 1 1.00000000000000000e+00
35 1 1.00000000000000000e+00
36 1 1.00000000000000000e+00
37 1 1.00000000000000000e+00
1 2 1.00000000000000000e+00
2 2 1.00000000000000000e+00
3 2 1.00000000000000000e+00
4 2 1.00000000000000000e+00
5 2 1.00000000000000000e+00
6 2 1.00000000000000000e+00
7 2 1.00000000000000000e+00
8 2 1.00000000000000000e+00
9 2 1.00000000000000000e+00
10 2 1.00000000000000000e+00
11 2 1.00000000000000000e+00
12 2 1.00000000000000000e+00
13 2 1.00000000000000000e+00
14 2 1.00000000000000000e+00
15 2 1.00000000000000000e+00
16 2 1.00000000000000000e+00
17 2 1.00000000000000000e+00
18 2 1.00000000000000000e+00
19 2 1.00000000000000000e+00
20 2 1.00000000000000000e+00
21 2 1.00000000000000000e+00
22 2 1.00000000000000000e+00
23 2 1.00000000000000000e+00
24 2 1.00000000000000000e+00
25 2 1.00000000000000000e+00
26 2 1.00000000000000000e+00
27 2 1.00000000000000000e+00
28 2 1.00000000000000000e+00
29 2 1.00000000000000000e+00
30 2 1.00000000000000000e+00
31 2 1.00000000000000000e+00
32 2 1.00000000000000000e+00
33 2 1.00000000000000000e+00
34 2 1.00000000000000000e+00
35 2 1.00000000000000000e+00
36 2 1.00000000000000000e+00
37 2 1.00000000000000000e+00
1 3 9.81132075471698117e-01
2 3 9.81132075471698117e-01
3 3 9.81132075471698117e-01
4 3 9.81132075471698117e-01
5 3 9.81132075471698006e-01
6 3 9.81132075471698228e-01
7 3 9.81132075471698117e-01
8 3 9.81132075471698117e-01
9 3 9.81132075471698117e-01
10 3 9.81132075471698117e-01
11 3 9.81132075471698117e-01
12 3 9.81132075471698117e-01
13 3 9.81132075471698117e-01
14 3 9.81132075471698006e-01
15 3 9.81132075471698228e-01
16 3 9.81132075471698117e-01
17 3 9.81132075471698117e-01
18 3 9.81132075471698117e-01
19 3 9.81132075471698117e-01
20 3 9.81132075471698117e-01
21 3 9.81132075471698117e-01
22 3 9.81132075471698117e-01
23 3 9.81132075471698006e-01
24 3 9.81132075471698228e-01
25 3 9.81132075471698117e-01
26 3 9.81132075471698117e-01
27 3 9.81132075471698117e-01
28 3 9.81132075471698117e-01
29 3 9.81132075471698117e-01
30 3 9.81132075471698117e-01
31 3 9.81132075471698117e-01
32 3 9.81132075471698006e-01
33 3 9.81132075471698228e-01
34 3 9.81132075471698117e-01
35 3 9.81132075471698117e-01
36 3 9.81132075471698117e-01
37 3 9.81132075471698117e-01
1 4 9.36170212765957466e-01
2 4 9.36170212765957577e-01
3 4 9.36170212765957355e-01
4 4 9.36170212765957466e-01
5 4 9.36170212765957577e-01
6 4 9.36170212765957577e-01
7 4 9.36170212765957466e-01
8 4 9.36170212765957466e-01
9 4 9.36170212765957577e-01
10 4 9.36170212765957466e-01
11 4 9.36170212765957577e-01
12 4 9.36170212765957355e-01
13 4 9.36170212765957466e-01
14 4 9.36170212765957577e-01
15 4 9.36170212765957577e-01
16 4 9.36170212765957466e-01
17 4 9.36170212765957466e-01
18 4 9.36170212765957577e-01
19 4 9.36170212765957466e-01
20 4 9.36170212765957577e-01
21 4 9.36170212765957355e-01
22 4 9.36170212765957466e-01
23 4 9.36170212765957577e-01
24 4 9.36170212765957577e-01
25 4 9.36170212765957466e-01
26 4 9.36170212765957466e-01
27 4 9.36170212765957577e-01
28 4 9.36170212765957466e-01
29 4 9.36170212765957577e-01
30 4 9.36170212765957355e-01
31 4 9.36170212765957466e-01
32 4 9.36170212765957577e-01
33 4 9.36170212765957577e-01
34 4 9.36170212765957466e-01
35 4 9.36170212765957466e-01
36 4 9.36170212765957577e-01
37 4 9.36170212765957466e-01
1 5 8.57142857142857095e-01
2 5 8.57142857142857206e-01
3 5 8.57142857142857095e-01
4 5 8.57142857142857206e-01
5 5 8.57142857142857095e-01
6 5 8.57142857142857317e-01
7 5 8.57142857142857206e-01
8 5 8.57142857142857095e-01
9 5 8.57142857142857206e-01
10 5 8.57142857142857095e-01
11 5 8.57142857142857206e-01
12 5 8.57142857142857095e-01
13 5 8.57142857142857206e-01
14 5 8.57142857142857095e-01
15 5 8.57142857142857317e-01
16 5 8.57142857142857206e-01
17 5 8.57142857142857095e-01
18 5 8.57142857142857206e-01
19 5 8.57142857142857095e-01
20 5 8.57142857142857206e-01
21 5 8.57142857142857095e-01
22 5 8.57142857142857206e-01
23 5 8.57142857142857095e-01
24 5 8.57142857142857317e-01
25 5 8.57142857142857206e-01
26 5 8.57142857142857095e-01
27 5 8.57142857142857206e-01
28 5 8.57142857142857095e-01
29 5 8.57142857142857206e-01
30 5 8.57142857142857095e-01
31 5 8.57142857142857206e-01
32 5 8.57142857142857095e-01
33 5 8.57142857142857317e-01
34 5 8.57142857142857206e-01
35 5 8.57142857142857095e-01
36 5 8.57142857142857206e-01
37 5 8.57142857142857095e-01
1 6 7.36842105263157854e-01
2 6 7.36842105263157965e-01
3 6 7.36842105263157854e-01
4 6 7.36842105263157854e-01
5 6 7.36842105263157743e-01
6 6 7.36842105263157965e-01
7 6 7.36842105263158076e-01
8 6 7.36842105263157743e-01
9 6 7.36842105263157965e-01
10 6 7.36842105263157854e-01
11 6 7.36842105263157965e-01
12 6 7.36842105263157854e-01
13 6 7.36842105263157854e-01
14 6 7.36842105263157743e-01
15 6 7.36842105263157965e-01
16 6 7.36842105263158076e-01
17 6 7.36842105263157743e-01
18 6 7.36842105263157965e-01
19 6 7.36842105263157854e-01
20 6 7.36842105263157965e-01
21 6 7.36842105263157854e-01
22 6 7.36842105263157854e-01
23 6 7.36842105263157743e-01
24 6 7.36842105263157965e-01
25 6 7.36842105263158076e-01
26 6 7.36842105263157743e-01
27 6 7.36842105263157965e-01
28 6 7.36842105263157854e-01
29 6 7.36842105263157965e-01
30 6 7.36842105263157854e-01
31 6 7.36842105263157854e-01
32 6 7.36842105263157743e-01
33 6 7.36842105263157965e-01
34 6 7.36842105263158076e-01
35 6 7.36842105263157743e-01
36 6 7.36842105263157965e-01
37 6 7.36842105263157854e-01
1 7 5.71428571428571397e-01
2 7 5.71428571428571508e-01
3 7 5.71428571428571286e-01
4 7 5.71428571428571397e-01
5 7 5.71428571428571397e-01
6 7 5.71428571428571397e-01
7 7 5.71428571428571508e-01
8 7 5.71428571428571397e-01
9 7 5.71428571428571508e-01
10 7 5.71428571428571397e-01
11 7 5.71428571428571508e-01
12 7 5.71428571428571286e-01
13 7 5.71428571428571397e-01
14 7 5.71428571428571397e-01
15 7 5.71428571428571397e-01
16 7 5.71428571428571508e-01
17 7 5.71428571428571397e-01
18 7 5.71428571428571508e-01
19 7 5.71428571428571397e-01
20 7 5.71428571428571508e-01
21 7 5.71428571428571286e-01
22 7 5.71428571428571397e-01
23 7 5.71428571428571397e-01
24 7 5.71428571428571397e-01
25 7 5.71428571428571508e-01
26 7 5.71428571428571397e-01
27 7 5.71428571428571508e-01
28 7 5.71428571428571397e-01
29 7 5.71428571428571508e-01
30 7 5.71428571428571286e-01
31 7 5.71428571428571397e-01
32 7 5.71428571428571397e-01
33 7 5.71428571428571397e-01
34 7 5.71428571428571508e-01
35 7 5.71428571428571397e-01
36 7 5.71428571428571508e-01
37 7 5.71428571428571397e-01
1 8 3.63636363636363646e-01
2 8 3.63636363636363646e-01
3 8 3.63636363636363591e-01
4 8 3.63636363636363591e-01
5 8 3.63636363636363591e-01
6 8 3.63636363636363591e-01
7 8 3.63636363636363591e-01
8 8 3.63636363636363702e-01
9 8 3.63636363636363646e-01
10 8 3.63636363636363646e-01
11 8 3.63636363636363646e-01
12 8 3.63636363636363591e-01
13 8 3.63636363636363591e-01
14 8 3.63636363636363591e-01
15 8 3.63636363636363591e-01
16 8 3.63636363636363591e-01
17 8 3.63636363636363702e-01
18 8 3.63636363636363646e-01
19 8 3.63636363636363646e-01
20 8 3.63636363636363646e-01
21 8 3.63636363636363591e-01
22 8 3.63636363636363591e-01
23 8 3.63636363636363591e-01
24 8 3.63636363636363591e-01
25 8 3.63636363636363591e-01
26 8 3.63636363636363702e-01
27 8 3.63636363636363646e-01
28 8 3.63636363636363646e-01
29 8 3.63636363636363646e-01
30 8 3.63636363636363591e-01
31 8 3.63636363636363591e-01
32 8 3.63636363636363591e-01
33 8 3.63636363636363591e-01
34 8 3.63636363636363591e-01
35 8 3.63636363636363702e-01
36 8 3.63636363636363646e-01
37 8 3.63636363636363646e-01
1 9 1.25000000000000000e-01
2 9 1.25000000000000028e-01
3 9 1.24999999999999972e-01
4 9 1.25000000000000028e-01
5 9 1.24999999999999944e-01
6 9 1.24999999999999903e-01
7 9 1.24999999999999903e-01
8 9 1.25000000000000028e-01
9 9 1.25000000000000028e-01
10 9 1.25000000000000000e-01
11 9 1.25000000000000028e-01
12 9 1.24999999999999972e-01
13 9 1.25000000000000028e-01
14 9 1.24999999999999944e-01
15 9 1.24999999999999903e-01
16 9 1.24999999999999903e-01
17 9 1.25000000000000028e-01
18 9 1.25000000000000028e-01
19 9 1.25000000000000000e-01
20 9 1.25000000000000028e-01
21 9 1.24999999999999972e-01
22 9 1.25000000000000028e-01
23 9 1.24999999999999944e-01
24 9 1.24999999999999903e-01
25 9 1.24999999999999903e-01
26 9 1.25000000000000028e-01
27 9 1.25000000000000028e-01
28 9 1.25000000000000000e-01
29 9 1.25000000000000028e-01
30 9 1.24999999999999972e-01
31 9 1.25000000000000028e-01
32 9 1.24999999999999944e-01
33 9 1.24999999999999903e-01
34 9 1.24999999999999903e-01
35 9 1.25000000000000028e-01
36 9 1.25000000000000028e-01
37 9 1.25000000000000000e-01
1 10 -1.24999999999999972e-01
2 10 -1.24999999999999944e-01
3 10 -1.24999999999999972e-01
4 10 -1.24999999999999847e-01
5 10 -1.25000000000000083e-01
6 10 -1.25000000000000111e-01
7 10 -1.25000000000000056e-01
8 10 -1.24999999999999958e-01
9 10 -1.24999999999999944e-01
10 10 -1.24999999999999972e-01
11 10 -1.24999999999999944e-01
12 10 -1.24999999999999972e-01
13 10 -1.24999999999999847e-01
14 10 -1.25000000000000083e-01
15 10 -1.25000000000000111e-01
16 10 -1.25000000000000056e-01
17 10 -1.24999999999999958e-01
18 10 -1.24999999999999944e-01
19 10 -1.24999999999999972e-01
20 10 -1.24999999999999944e-01
21 10 -1.24999999999999972e-01
22 10 -1.24999999999999847e-01
23 10 -1.25000000000000083e-01
24 10 -1.25000000000000111e-01
25 10 -1.25000000000000056e-01
26 10 -1.24999999999999958e-01
27 10 -1.24999999999999944e-01
28 10 -1.24999999999999972e-01
29 10 -1.24999999999999944e-01
30 10 -1.24999999999999972e-01
31 10 -1.24999999999999847e-01
32 10 -1.25000000000000083e-01
33 10 -1.25000000000000111e-01
34 10 -1.25000000000000056e-01
35 10 -1.24999999999999958e-01
36 10 -1.24999999999999944e-01
37 10 -1.24999999999999972e-01
1 11 -3.63636363636363646e-01
2 11 -3.63636363636363591e-01
3 11 -3.63636363636363591e-01
4 11 -3.63636363636363535e-01
5 11 -3.63636363636363702e-01
6 11 -3.63636363636363702e-01
7 11 -3.63636363636363702e-01
8 11 -3.63636363636363591e-01
9 11 -3.63636363636363591e-01
10 11 -3.63636363636363646e-01
11 11 -3.63636363636363591e-01
12 11 -3.63636363636363591e-01
13 11 -3.63636363636363535e-01
14 11 -3.63636363636363702e-01
15 11 -3.63636363636363702e-01
16 11 -3.63636363636363702e-01
17 11 -3.63636363636363591e-01
18 11 -3.63636363636363591e-01
19 11 -3.63636363636363646e-01
20 11 -3.63636363636363591e-01
21 11 -3.63636363636363591e-01
22 11 -3.63636363636363535e-01
23 11 -3.63636363636363702e-01
24 11 -3.63636363636363702e-01
25 11 -3.63636363636363702e-01
26 11 -3.63636363636363591e-01
27 11 -3.63636363636363591e-01
28 11 -3.63636363636363646e-01
29 11 -3.63636363636363591e-01
30 11 -3.63636363636363591e-01
31 11 -3.63636363636363535e-01
32 11 -3.63636363636363702e-01
33 11 -3.63636363636363702e-01
34 11 -3.63636363636363702e-01
35 11 -3.63636363636363591e-01
36 11 -3.63636363636363591e-01
37 11 -3.63636363636363646e-01
1 12 -5.71428571428571397e-01
2 12 -5.71428571428571397e-01
3 12 -5.71428571428571508e-01
4 12 -5.71428571428571286e-01
5 12 -5.71428571428571508e-01
6 12 -5.71428571428571508e-01
7 12 -5.71428571428571397e-01
8 12 -5.71428571428571397e-01
9 12 -5.71428571428571397e-01
10 12 -5.71428571428571397e-01
11 12 -5.71428571428571397e-01
12 12 -5.71428571428571508e-01
13 12 -5.71428571428571286e-01
14 12 -5.71428571428571508e-01
15 12 -5.71428571428571508e-01
16 12 -5.71428571428571397e-01
17 12 -5.71428571428571397e-01
18 12 -5.71428571428571397e-01
19 12 -5.71428571428571397e-01
20 12 -5.71428571428571397e-01
21 12 -5.71428571428571508e-01
22 12 -5.71428571428571286e-01
23 12 -5.71428571428571508e-01
24 12 -5.71428571428571508e-01
25 12 -5.71428571428571397e-01
26 12 -5.71428571428571397e-01
27 12 -5.71428571428571397e-01
28 12 -5.71428571428571397e-01
29 12 -5.71428571428571397e-01
30 12 -5.71428571428571508e-01
31 12 -5.71428571428571286e-01
32 12 -5.71428571428571508e-01
33 12 -5.71428571428571508e-01
34 12 -5.71428571428571397e-01
35 12 -5.71428571428571397e-01
36 12 -5.71428571428571397e-01
37 12 -5.71428571428571397e-01
1 13 -7.36842105263157854e-01
2 13 -7.36842105263157854e-01
3 13 -7.36842105263158076e-01
4 13 -7.36842105263157743e-01
5 13 -7.36842105263157854e-01
6 13 -7.36842105263158076e-01
7 13 -7.36842105263157854e-01
8 13 -7.36842105263157854e-01
9 13 -7.36842105263157854e-01
10 13 -7.36842105263157854e-01
11 13 -7.36842105263157854e-01
12 13 -7.36842105263158076e-01
13 13 -7.36842105263157743e-01
14 13 -7.36842105263157854e-01
15 13 -7.36842105263158076e-01
16 13 -7.36842105263157854e-01
17 13 -7.36842105263157854e-01
18 13 -7.36842105263157854e-01
19 13 -7.36842105263157854e-01
20 13 -7.36842105263157854e-01
21 13 -7.36842105263158076e-01
22 13 -7.36842105263157743e-01
23 13 -7.36842105263157854e-01
24 13 -7.36842105263158076e-01
25 13 -7.36842105263157854e-01
26 13 -7.36842105263157854e-01
27 13 -7.36842105263157854e-01
28 13 -7.36842105263157854e-01
29 13 -7.36842105263157854e-01
30 13 -7.36842105263158076e-01
31 13 -7.36842105263157743e-01
32 13 -7.36842105263157854e-01
33 13 -7.36842105263158076e-01
34 13 -7.36842105263157854e-01
35 13 -7.36842105263157854e-01
36 13 -7.36842105263157854e-01
37 13 -7.36842105263157854e-01
1 14 -8.57142857142857095e-01
2 14 -8.57142857142857206e-01
3 14 -8.57142857142857206e-01
4 14 -8.57142857142857095e-01
5 14 -8.57142857142857095e-01
6 14 -8.57142857142857317e-01
7 14 -8.57142857142857095e-01
8 14 -8.57142857142857095e-01
9 14 -8.57142857142857206e-01
10 14 -8.57142857142857095e-01
11 14 -8.57142857142857206e-01
12 14 -8.57142857142857206e-01
13 14 -8.57142857142857095e-01
14 14 -8.57142857142857095e-01
15 14 -8.57142857142857317e-01
16 14 -8.57142857142857095e-01
17 14 -8.57142857142857095e-01
18 14 -8.57142857142857206e-01
19 14 -8.57142857142857095e-01
20 14 -8.57142857142857206e-01
21 14 -8.57142857142857206e-01
22 14 -8.57142857142857095e-01
23 14 -8.57142857142857095e-01
24 14 -8.57142857142857317e-01
25 14 -8.57142857142857095e-01
26 14 -8.57142857142857095e-01
27 14 -8.57142857142857206e-01
28 14 -8.57142857142857095e-01
29 14 -8.57142857142857206e-01
30 14 -8.57142857142857206e-01
31 14 -8.57142857142857095e-01
32 14 -8.57142857142857095e-01
33 14 -8.57142857142857317e-01
34 14 -8.57142857142857095e-01
35 14 -8.57142857142857095e-01
36 14 -8.57142857142857206e-01
37 14 -8.57142857142857095e-01
1 15 -9.36170212765957466e-01
2 15 -9.36170212765957577e-01
3 15 -9.36170212765957355e-01
4 15 -9.36170212765957466e-01
5 15 -9.36170212765957244e-01
6 15 -9.36170212765957577e-01
7 15 -9.36170212765957466e-01
8 15 -9.36170212765957466e-01
9 15 -9.36170212765957577e-01
10 15 -9.36170212765957466e-01
11 15 -9.36170212765957577e-01
12 15 -9.36170212765957355e-01
13 15 -9.36170212765957466e-01
14 15 -9.36170212765957244e-01
15 15 -9.36170212765957577e-01
16 15 -9.36170212765957466e-01
17 15 -9.36170212765957466e-01
18 15 -9.36170212765957577e-01
19 15 -9.36170212765957466e-01
20 15 -9.36170212765957577e-01
21 15 -9.36170212765957355e-01
22 15 -9.36170212765957466e-01
23 15 -9.36170212765957244e-01
24 15 -9.36170212765957577e-01
25 15 -9.36170212765957466e-01
26 15 -9.36170212765957466e-01
27 15 -9.36170212765957577e-01
28 15 -9.36170212765957466e-01
29 15 -9.36170212765957577e-01
30 15 -9.36170212765957355e-01
31 15 -9.36170212765957466e-01
32 15 -9.36170212765957244e-01
33 15 -9.36170212765957577e-01
34 15 -9.36170212765957466e-01
35 15 -9.36170212765957466e-01
36 15 -9.36170212765957577e-01
37 15 -9.36170212765957466e-01
1 16 -9.81132075471698117e-01
2 16 -9.81132075471698117e-01
3 16 -9.81132075471698117e-01
4 16 -9.81132075471698006e-01
5 16 -9.81132075471698006e-01
6 16 -9.81132075471698228e-01
7 16 -9.81132075471698228e-01
8 16 -9.81132075471698117e-01
9 16 -9.81132075471698117e-01
10 16 -9.81132075471698117e-01
11 16 -9.81132075471698117e-01
12 16 -9.81132075471698117e-01
13 16 -9.81132075471698006e-01
14 16 -9.81132075471698006e-01
15 16 -9.81132075471698228e-01
16 16 -9.81132075471698228e-01
17 16 -9.81132075471698117e-01
18 16 -9.81132075471698117e-01
19 16 -9.81132075471698117e-01
20 16 -9.81132075471698117e-01
21 16 -9.81132075471698117e-01
22 16 -9.81132075471698006e-01
23 16 -9.81132075471698006e-01
24 16 -9.81132075471698228e-01
25 16 -9.81132075471698228e-01
26 16 -9.81132075471698117e-01
27 16 -9.81132075471698117e-01
28 16 -9.81132075471698117e-01
29 16 -9.81132075471698117e-01
30 16 -9.81132075471698117e-01
31 16 -9.81132075471698006e-01
32 16 -9.81132075471698006e-01
33 16 -9.81132075471698228e-01
34 16 -9.81132075471698228e-01
35 16 -9.81132075471698117e-01
36 16 -9.81132075471698117e-01
37 16 -9.81132075471698117e-01
1 17 -1.00000000000000000e+00
2 17 -1.00000000000000000e+00
3 17 -1.00000000000000000e+00
4 17 -1.00000000000000000e+00
5 17 -1.00000000000000000e+00
6 17 -1.00000000000000000e+00
7 17 -1.00000000000000000e+00
8 17 -1.00000000000000000e+00
9 17 -1.00000000000000000e+00
10 17 -1.00000000000000000e+00
11 17 -1.00000000000000000e+00
12 17 -1.00000000000000000e+00
13 17 -1.00000000000000000e+00
14 17 -1.00000000000000000e+00
15 17 -1.00000000000000000e+00
16 17 -1.00000000000000000e+00
17 17 -1.00000000000000000e+00
18 17 -1.00000000000000000e+00
19 17 -1.00000000000000000e+00
20 17 -1.00000000000000000e+00
21 17 -1.00000000000000000e+00
22 17 -1.00000000000000000e+00
23 17 -1.00000000000000000e+00
24 17 -1.00000000000000000e+00
25 17 -1.00000000000000000e+00
26 17 -1.00000000000000000e+00
27 17 -1.00000000000000000e+00
28 17 -1.00000000000000000e+00
29 17 -1.00000000000000000e+00
30 17 -1.00000000000000000e+00
31 17 -1.00000000000000000e+00
32 17 -1.00000000000000000e+00
33 17 -1.00000000000000000e+00
34 17 -1.00000000000000000e+00
35 17 -1.00000000000000000e+00
36 17 -1.00000000000000000e+00
37 17 -1.00000000000000000e+00
1 18 -1.00000000000000000e+00
2 18 -1.00000000000000000e+00
3 18 -1.00000000000000000e+00
4 18 -1.00000000000000000e+00
5 18 -1.00000000000000000e+00
6 18 -1.00000000000000000e+00
7 18 -1.00000000000000000e+00
8 18 -1.00000000000000000e+00
9 18 -1.00000000000000000e+00
10 18 -1.00000000000000000e+00
11 18 -1.00000000000000000e+00
12 18 -1.00000000000000000e+00
13 18 -1.00000000000000000e+00
14 18 -1.00000000000000000e+00
15 18 -1.00000000000000000e+00
16 18 -1.00000000000000000e+00
17 18 -1.00000000000000000e+00
18 18 -1.00000000000000000e+00
19 18 -1.00000000000000000e+00
20 18 -1.00000000000000000e+00
21 18 -1.00000000000000000e+00
22 18 -1.00000000000000000e+00
23 18 -1.00000000000000000e+00
24 18 -1.00000000000000000e+00
25 18 -1.00000000000000000e+00
26 18 -1.00000000000000000e+00
27 18 -1.00000000000000000e+00
28 18 -1.00000000000000000e+00
29 18 -1.00000000000000000e+00
30 18 -1.00000000000000000e+00
31 18 -1.00000000000000000e+00
32 18 -1.00000000000000000e+00
33 18 -1.00000000000000000e+00
34 18 -1.00000000000000000e+00
35 18 -1.00000000000000000e+00
36 18 -1.00000000000000000e+00
37 18 -1.00000000000000000e+00
