%%MatrixMarket matrix coordinate  real general
1 21 21
1 1 0.00000000000000000e+00
1 2 0.00000000000000000e+00
1 3 0.00000000000000000e+00
1 4 6.25000000000000000e-02
1 5 1.25000000000000000e-01
1 6 1.87500000000000000e-01
1 7 2.50000000000000000e-01
1 8 3.12500000000000000e-01
1 9 3.75000000000000000e-01
1 10 4.37500000000000000e-01
1 11 5.00000000000000000e-01
1 12 5.62500000000000000e-01
1 13 6.25000000000000000e-01
1 14 6.87500000000000000e-01
1 15 7.50000000000000000e-01
1 16 8.12500000000000000e-01
1 17 8.75000000000000000e-01
1 18 9.37500000000000000e-01
1 19 1.00000000000000000e+00
1 20 1.00000000000000000e+00
1 21 1.00000000000000000e+00
