%%MatrixMarket matrix coordinate  real general
37 18 666
1 1 1.00000000000000000e+00
2 1 9.63388347648318488e-01
3 1 9.08470869120796110e-01
4 1 8.71859216769114598e-01
5 1 8.53553390593273842e-01
6 1 8.53553390593273953e-01
7 1 8.71859216769114709e-01
8 1 9.08470869120796221e-01
9 1 9.63388347648318488e-01
10 1 1.00000000000000000e+00
11 1 9.63388347648318488e-01
12 1 9.08470869120796110e-01
13 1 8.71859216769114598e-01
14 1 8.53553390593273842e-01
15 1 8.53553390593273953e-01
16 1 8.71859216769114709e-01
17 1 9.08470869120796221e-01
18 1 9.63388347648318488e-01
19 1 1.00000000000000000e+00
20 1 9.63388347648318488e-01
21 1 9.08470869120796110e-01
22 1 8.71859216769114598e-01
23 1 8.53553390593273842e-01
24 1 8.53553390593273953e-01
25 1 8.71859216769114709e-01
26 1 9.08470869120796221e-01
27 1 9.63388347648318488e-01
28 1 1.00000000000000000e+00
29 1 9.63388347648318488e-01
30 1 9.08470869120796110e-01
31 1 8.71859216769114598e-01
32 1 8.53553390593273842e-01
33 1 8.53553390593273953e-01
34 1 8.71859216769114709e-01
35 1 9.08470869120796221e-01
36 1 9.63388347648318488e-01
37 1 1.00000000000000000e+00
1 2 9.37500000000000000e-01
2 2 9.03176575920298652e-01
3 2 8.51691439800746353e-01
4 2 8.17368015721045005e-01
5 2 8.00206303681194275e-01
6 2 8.00206303681194386e-01
7 2 8.17368015721045005e-01
8 2 8.51691439800746464e-01
9 2 9.03176575920298652e-01
10 2 9.37500000000000000e-01
11 2 9.03176575920298652e-01
12 2 8.51691439800746353e-01
13 2 8.17368015721045005e-01
14 2 8.00206303681194275e-01
15 2 8.00206303681194386e-01
16 2 8.17368015721045005e-01
17 2 8.51691439800746464e-01
18 2 9.03176575920298652e-01
19 2 9.37500000000000000e-01
20 2 9.03176575920298652e-01
21 2 8.51691439800746353e-01
22 2 8.17368015721045005e-01
23 2 8.00206303681194275e-01
24 2 8.00206303681194386e-01
25 2 8.17368015721045005e-01
26 2 8.51691439800746464e-01
27 2 9.03176575920298652e-01
28 2 9.37500000000000000e-01
29 2 9.03176575920298652e-01
30 2 8.51691439800746353e-01
31 2 8.17368015721045005e-01
32 2 8.00206303681194275e-01
33 2 8.00206303681194386e-01
34 2 8.17368015721045005e-01
35 2 8.51691439800746464e-01
36 2 9.03176575920298652e-01
37 2 9.37500000000000000e-01
1 3 8.28125000000000000e-01
2 3 7.97805975396263856e-01
3 3 7.52327438490659306e-01
4 3 7.22008413886923162e-01
5 3 7.06848901585054978e-01
6 3 7.06848901585054978e-01
7 3 7.22008413886923162e-01
8 3 7.52327438490659417e-01
9 3 7.97805975396263856e-01
10 3 8.28125000000000000e-01
11 3 7.97805975396263856e-01
12 3 7.52327438490659306e-01
13 3 7.22008413886923162e-01
14 3 7.06848901585054978e-01
15 3 7.06848901585054978e-01
16 3 7.22008413886923162e-01
17 3 7.52327438490659417e-01
18 3 7.97805975396263856e-01
19 3 8.28125000000000000e-01
20 3 7.97805975396263856e-01
21 3 7.52327438490659306e-01
22 3 7.22008413886923162e-01
23 3 7.06848901585054978e-01
24 3 7.06848901585054978e-01
25 3 7.22008413886923162e-01
26 3 7.52327438490659417e-01
27 3 7.97805975396263856e-01
28 3 8.28125000000000000e-01
29 3 7.97805975396263856e-01
30 3 7.52327438490659306e-01
31 3 7.22008413886923162e-01
32 3 7.06848901585054978e-01
33 3 7.06848901585054978e-01
34 3 7.22008413886923162e-01
35 3 7.52327438490659417e-01
36 3 7.97805975396263856e-01
37 3 8.28125000000000000e-01
1 4 7.34375000000000000e-01
2 4 7.07488317804233935e-01
3 4 6.67158294510584726e-01
4 4 6.40271612314818661e-01
5 4 6.26828271216935518e-01
6 4 6.26828271216935518e-01
7 4 6.40271612314818772e-01
8 4 6.67158294510584726e-01
9 4 7.07488317804233935e-01
10 4 7.34375000000000000e-01
11 4 7.07488317804233935e-01
12 4 6.67158294510584726e-01
13 4 6.40271612314818661e-01
14 4 6.26828271216935518e-01
15 4 6.26828271216935518e-01
16 4 6.40271612314818772e-01
17 4 6.67158294510584726e-01
18 4 7.07488317804233935e-01
19 4 7.34375000000000000e-01
20 4 7.07488317804233935e-01
21 4 6.67158294510584726e-01
22 4 6.40271612314818661e-01
23 4 6.26828271216935518e-01
24 4 6.26828271216935518e-01
25 4 6.40271612314818772e-01
26 4 6.67158294510584726e-01
27 4 7.07488317804233935e-01
28 4 7.34375000000000000e-01
29 4 7.07488317804233935e-01
30 4 6.67158294510584726e-01
31 4 6.40271612314818661e-01
32 4 6.26828271216935518e-01
33 4 6.26828271216935518e-01
34 4 6.40271612314818772e-01
35 4 6.67158294510584726e-01
36 4 7.07488317804233935e-01
37 4 7.34375000000000000e-01
1 5 6.56250000000000000e-01
2 5 6.32223603144209112e-01
3 5 5.96184007860522502e-01
4 5 5.72157611004731614e-01
5 5 5.60144412576836004e-01
6 5 5.60144412576836004e-01
7 5 5.72157611004731725e-01
8 5 5.96184007860522613e-01
9 5 6.32223603144209112e-01
10 5 6.56250000000000000e-01
11 5 6.32223603144209112e-01
12 5 5.96184007860522502e-01
13 5 5.72157611004731614e-01
14 5 5.60144412576836004e-01
15 5 5.60144412576836004e-01
16 5 5.72157611004731725e-01
17 5 5.96184007860522613e-01
18 5 6.32223603144209112e-01
19 5 6.56250000000000000e-01
20 5 6.32223603144209112e-01
21 5 5.96184007860522502e-01
22 5 5.72157611004731614e-01
23 5 5.60144412576836004e-01
24 5 5.60144412576836004e-01
25 5 5.72157611004731725e-01
26 5 5.96184007860522613e-01
27 5 6.32223603144209112e-01
28 5 6.56250000000000000e-01
29 5 6.32223603144209112e-01
30 5 5.96184007860522502e-01
31 5 5.72157611004731614e-01
32 5 5.60144412576836004e-01
33 5 5.60144412576836004e-01
34 5 5.72157611004731725e-01
35 5 5.96184007860522613e-01
36 5 6.32223603144209112e-01
37 5 6.56250000000000000e-01
1 6 5.93750000000000000e-01
2 6 5.72011831416189165e-01
3 6 5.39404578540472746e-01
4 6 5.17666409956661910e-01
5 6 5.06797325664756437e-01
6 6 5.06797325664756437e-01
7 6 5.17666409956661910e-01
8 6 5.39404578540472857e-01
9 6 5.72011831416189165e-01
10 6 5.93750000000000000e-01
11 6 5.72011831416189165e-01
12 6 5.39404578540472746e-01
13 6 5.17666409956661910e-01
14 6 5.06797325664756437e-01
15 6 5.06797325664756437e-01
16 6 5.17666409956661910e-01
17 6 5.39404578540472857e-01
18 6 5.72011831416189165e-01
19 6 5.93750000000000000e-01
20 6 5.72011831416189165e-01
21 6 5.39404578540472746e-01
22 6 5.17666409956661910e-01
23 6 5.06797325664756437e-01
24 6 5.06797325664756437e-01
25 6 5.17666409956661910e-01
26 6 5.39404578540472857e-01
27 6 5.72011831416189165e-01
28 6 5.93750000000000000e-01
29 6 5.72011831416189165e-01
30 6 5.39404578540472746e-01
31 6 5.17666409956661910e-01
32 6 5.06797325664756437e-01
33 6 5.06797325664756437e-01
34 6 5.17666409956661910e-01
35 6 5.39404578540472857e-01
36 6 5.72011831416189165e-01
37 6 5.93750000000000000e-01
1 7 5.46875000000000000e-01
2 7 5.26853002620174204e-01
3 7 4.96820006550435456e-01
4 7 4.76798009170609660e-01
5 7 4.66787010480696596e-01
6 7 4.66787010480696707e-01
7 7 4.76798009170609660e-01
8 7 4.96820006550435456e-01
9 7 5.26853002620174204e-01
10 7 5.46875000000000000e-01
11 7 5.26853002620174204e-01
12 7 4.96820006550435456e-01
13 7 4.76798009170609660e-01
14 7 4.66787010480696596e-01
15 7 4.66787010480696707e-01
16 7 4.76798009170609660e-01
17 7 4.96820006550435456e-01
18 7 5.26853002620174204e-01
19 7 5.46875000000000000e-01
20 7 5.26853002620174204e-01
21 7 4.96820006550435456e-01
22 7 4.76798009170609660e-01
23 7 4.66787010480696596e-01
24 7 4.66787010480696707e-01
25 7 4.76798009170609660e-01
26 7 4.96820006550435456e-01
27 7 5.26853002620174204e-01
28 7 5.46875000000000000e-01
29 7 5.26853002620174204e-01
30 7 4.96820006550435456e-01
31 7 4.76798009170609660e-01
32 7 4.66787010480696596e-01
33 7 4.66787010480696707e-01
34 7 4.76798009170609660e-01
35 7 4.96820006550435456e-01
36 7 5.26853002620174204e-01
37 7 5.46875000000000000e-01
1 8 5.15625000000000000e-01
2 8 4.96747116756164231e-01
3 8 4.68430291890410522e-01
4 8 4.49552408646574808e-01
5 8 4.40113467024656757e-01
6 8 4.40113467024656868e-01
7 8 4.49552408646574808e-01
8 8 4.68430291890410577e-01
9 8 4.96747116756164231e-01
10 8 5.15625000000000000e-01
11 8 4.96747116756164231e-01
12 8 4.68430291890410522e-01
13 8 4.49552408646574808e-01
14 8 4.40113467024656757e-01
15 8 4.40113467024656868e-01
16 8 4.49552408646574808e-01
17 8 4.68430291890410577e-01
18 8 4.96747116756164231e-01
19 8 5.15625000000000000e-01
20 8 4.96747116756164231e-01
21 8 4.68430291890410522e-01
22 8 4.49552408646574808e-01
23 8 4.40113467024656757e-01
24 8 4.40113467024656868e-01
25 8 4.49552408646574808e-01
26 8 4.68430291890410577e-01
27 8 4.96747116756164231e-01
28 8 5.15625000000000000e-01
29 8 4.96747116756164231e-01
30 8 4.68430291890410522e-01
31 8 4.49552408646574808e-01
32 8 4.40113467024656757e-01
33 8 4.40113467024656868e-01
34 8 4.49552408646574808e-01
35 8 4.68430291890410577e-01
36 8 4.96747116756164231e-01
37 8 5.15625000000000000e-01
1 9 5.00000000000000000e-01
2 9 4.81694173824159244e-01
3 9 4.54235434560398110e-01
4 9 4.35929608384557410e-01
5 9 4.26776695296636865e-01
6 9 4.26776695296636976e-01
7 9 4.35929608384557410e-01
8 9 4.54235434560398110e-01
9 9 4.81694173824159244e-01
10 9 5.00000000000000000e-01
11 9 4.81694173824159244e-01
12 9 4.54235434560398110e-01
13 9 4.35929608384557410e-01
14 9 4.26776695296636865e-01
15 9 4.26776695296636976e-01
16 9 4.35929608384557410e-01
17 9 4.54235434560398110e-01
18 9 4.81694173824159244e-01
19 9 5.00000000000000000e-01
20 9 4.81694173824159244e-01
21 9 4.54235434560398110e-01
22 9 4.35929608384557410e-01
23 9 4.26776695296636865e-01
24 9 4.26776695296636976e-01
25 9 4.35929608384557410e-01
26 9 4.54235434560398110e-01
27 9 4.81694173824159244e-01
28 9 5.00000000000000000e-01
29 9 4.81694173824159244e-01
30 9 4.54235434560398110e-01
31 9 4.35929608384557410e-01
32 9 4.26776695296636865e-01
33 9 4.26776695296636976e-01
34 9 4.35929608384557410e-01
35 9 4.54235434560398110e-01
36 9 4.81694173824159244e-01
37 9 5.00000000000000000e-01
1 10 5.00000000000000000e-01
2 10 4.81694173824159244e-01
3 10 4.54235434560398110e-01
4 10 4.35929608384557410e-01
5 10 4.26776695296636865e-01
6 10 4.26776695296636976e-01
7 10 4.35929608384557410e-01
8 10 4.54235434560398110e-01
9 10 4.81694173824159244e-01
10 10 5.00000000000000000e-01
11 10 4.81694173824159244e-01
12 10 4.54235434560398110e-01
13 10 4.35929608384557410e-01
14 10 4.26776695296636865e-01
15 10 4.26776695296636976e-01
16 10 4.35929608384557410e-01
17 10 4.54235434560398110e-01
18 10 4.81694173824159244e-01
19 10 5.00000000000000000e-01
20 10 4.81694173824159244e-01
21 10 4.54235434560398110e-01
22 10 4.35929608384557410e-01
23 10 4.26776695296636865e-01
24 10 4.26776695296636976e-01
25 10 4.35929608384557410e-01
26 10 4.54235434560398110e-01
27 10 4.81694173824159244e-01
28 10 5.00000000000000000e-01
29 10 4.81694173824159244e-01
30 10 4.54235434560398110e-01
31 10 4.35929608384557410e-01
32 10 4.26776695296636865e-01
33 10 4.26776695296636976e-01
34 10 4.35929608384557410e-01
35 10 4.54235434560398110e-01
36 10 4.81694173824159244e-01
37 10 5.00000000000000000e-01
1 11 5.15625000000000000e-01
2 11 4.96747116756164231e-01
3 11 4.68430291890410522e-01
4 11 4.49552408646574753e-01
5 11 4.40113467024656813e-01
6 11 4.40113467024656924e-01
7 11 4.49552408646574753e-01
8 11 4.68430291890410522e-01
9 11 4.96747116756164231e-01
10 11 5.15625000000000000e-01
11 11 4.96747116756164231e-01
12 11 4.68430291890410522e-01
13 11 4.49552408646574753e-01
14 11 4.40113467024656813e-01
15 11 4.40113467024656924e-01
16 11 4.49552408646574753e-01
17 11 4.68430291890410522e-01
18 11 4.96747116756164231e-01
19 11 5.15625000000000000e-01
20 11 4.96747116756164231e-01
21 11 4.68430291890410522e-01
22 11 4.49552408646574753e-01
23 11 4.40113467024656813e-01
24 11 4.40113467024656924e-01
25 11 4.49552408646574753e-01
26 11 4.68430291890410522e-01
27 11 4.96747116756164231e-01
28 11 5.15625000000000000e-01
29 11 4.96747116756164231e-01
30 11 4.68430291890410522e-01
31 11 4.49552408646574753e-01
32 11 4.40113467024656813e-01
33 11 4.40113467024656924e-01
34 11 4.49552408646574753e-01
35 11 4.68430291890410522e-01
36 11 4.96747116756164231e-01
37 11 5.15625000000000000e-01
1 12 5.46875000000000000e-01
2 12 5.26853002620174204e-01
3 12 4.96820006550435400e-01
4 12 4.76798009170609660e-01
5 12 4.66787010480696596e-01
6 12 4.66787010480696707e-01
7 12 4.76798009170609660e-01
8 12 4.96820006550435456e-01
9 12 5.26853002620174204e-01
10 12 5.46875000000000000e-01
11 12 5.26853002620174204e-01
12 12 4.96820006550435400e-01
13 12 4.76798009170609660e-01
14 12 4.66787010480696596e-01
15 12 4.66787010480696707e-01
16 12 4.76798009170609660e-01
17 12 4.96820006550435456e-01
18 12 5.26853002620174204e-01
19 12 5.46875000000000000e-01
20 12 5.26853002620174204e-01
21 12 4.96820006550435400e-01
22 12 4.76798009170609660e-01
23 12 4.66787010480696596e-01
24 12 4.66787010480696707e-01
25 12 4.76798009170609660e-01
26 12 4.96820006550435456e-01
27 12 5.26853002620174204e-01
28 12 5.46875000000000000e-01
29 12 5.26853002620174204e-01
30 12 4.96820006550435400e-01
31 12 4.76798009170609660e-01
32 12 4.66787010480696596e-01
33 12 4.66787010480696707e-01
34 12 4.76798009170609660e-01
35 12 4.96820006550435456e-01
36 12 5.26853002620174204e-01
37 12 5.46875000000000000e-01
1 13 5.93750000000000000e-01
2 13 5.72011831416189165e-01
3 13 5.39404578540472746e-01
4 13 5.17666409956661910e-01
5 13 5.06797325664756326e-01
6 13 5.06797325664756437e-01
7 13 5.17666409956661910e-01
8 13 5.39404578540472857e-01
9 13 5.72011831416189165e-01
10 13 5.93750000000000000e-01
11 13 5.72011831416189165e-01
12 13 5.39404578540472746e-01
13 13 5.17666409956661910e-01
14 13 5.06797325664756326e-01
15 13 5.06797325664756437e-01
16 13 5.17666409956661910e-01
17 13 5.39404578540472857e-01
18 13 5.72011831416189165e-01
19 13 5.93750000000000000e-01
20 13 5.72011831416189165e-01
21 13 5.39404578540472746e-01
22 13 5.17666409956661910e-01
23 13 5.06797325664756326e-01
24 13 5.06797325664756437e-01
25 13 5.17666409956661910e-01
26 13 5.39404578540472857e-01
27 13 5.72011831416189165e-01
28 13 5.93750000000000000e-01
29 13 5.72011831416189165e-01
30 13 5.39404578540472746e-01
31 13 5.17666409956661910e-01
32 13 5.06797325664756326e-01
33 13 5.06797325664756437e-01
34 13 5.17666409956661910e-01
35 13 5.39404578540472857e-01
36 13 5.72011831416189165e-01
37 13 5.93750000000000000e-01
1 14 6.56250000000000000e-01
2 14 6.32223603144209001e-01
3 14 5.96184007860522502e-01
4 14 5.72157611004731503e-01
5 14 5.60144412576836004e-01
6 14 5.60144412576836115e-01
7 14 5.72157611004731614e-01
8 14 5.96184007860522613e-01
9 14 6.32223603144209001e-01
10 14 6.56250000000000000e-01
11 14 6.32223603144209001e-01
12 14 5.96184007860522502e-01
13 14 5.72157611004731503e-01
14 14 5.60144412576836004e-01
15 14 5.60144412576836115e-01
16 14 5.72157611004731614e-01
17 14 5.96184007860522613e-01
18 14 6.32223603144209001e-01
19 14 6.56250000000000000e-01
20 14 6.32223603144209001e-01
21 14 5.96184007860522502e-01
22 14 5.72157611004731503e-01
23 14 5.60144412576836004e-01
24 14 5.60144412576836115e-01
25 14 5.72157611004731614e-01
26 14 5.96184007860522613e-01
27 14 6.32223603144209001e-01
28 14 6.56250000000000000e-01
29 14 6.32223603144209001e-01
30 14 5.96184007860522502e-01
31 14 5.72157611004731503e-01
32 14 5.60144412576836004e-01
33 14 5.60144412576836115e-01
34 14 5.72157611004731614e-01
35 14 5.96184007860522613e-01
36 14 6.32223603144209001e-01
37 14 6.56250000000000000e-01
1 15 7.34375000000000000e-01
2 15 7.07488317804233824e-01
3 15 6.67158294510584726e-01
4 15 6.40271612314818550e-01
5 15 6.26828271216935518e-01
6 15 6.26828271216935629e-01
7 15 6.40271612314818661e-01
8 15 6.67158294510584726e-01
9 15 7.07488317804233824e-01
10 15 7.34375000000000000e-01
11 15 7.07488317804233824e-01
12 15 6.67158294510584726e-01
13 15 6.40271612314818550e-01
14 15 6.26828271216935518e-01
15 15 6.26828271216935629e-01
16 15 6.40271612314818661e-01
17 15 6.67158294510584726e-01
18 15 7.07488317804233824e-01
19 15 7.34375000000000000e-01
20 15 7.07488317804233824e-01
21 15 6.67158294510584726e-01
22 15 6.40271612314818550e-01
23 15 6.26828271216935518e-01
24 15 6.26828271216935629e-01
25 15 6.40271612314818661e-01
26 15 6.67158294510584726e-01
27 15 7.07488317804233824e-01
28 15 7.34375000000000000e-01
29 15 7.07488317804233824e-01
30 15 6.67158294510584726e-01
31 15 6.40271612314818550e-01
32 15 6.26828271216935518e-01
33 15 6.26828271216935629e-01
34 15 6.40271612314818661e-01
35 15 6.67158294510584726e-01
36 15 7.07488317804233824e-01
37 15 7.34375000000000000e-01
1 16 8.28125000000000000e-01
2 16 7.97805975396263745e-01
3 16 7.52327438490659306e-01
4 16 7.22008413886923051e-01
5 16 7.06848901585054867e-01
6 16 7.06848901585055089e-01
7 16 7.22008413886923162e-01
8 16 7.52327438490659306e-01
9 16 7.97805975396263745e-01
10 16 8.28125000000000000e-01
11 16 7.97805975396263745e-01
12 16 7.52327438490659306e-01
13 16 7.22008413886923051e-01
14 16 7.06848901585054867e-01
15 16 7.06848901585055089e-01
16 16 7.22008413886923162e-01
17 16 7.52327438490659306e-01
18 16 7.97805975396263745e-01
19 16 8.28125000000000000e-01
20 16 7.97805975396263745e-01
21 16 7.52327438490659306e-01
22 16 7.22008413886923051e-01
23 16 7.06848901585054867e-01
24 16 7.06848901585055089e-01
25 16 7.22008413886923162e-01
26 16 7.52327438490659306e-01
27 16 7.97805975396263745e-01
28 16 8.28125000000000000e-01
29 16 7.97805975396263745e-01
30 16 7.52327438490659306e-01
31 16 7.22008413886923051e-01
32 16 7.06848901585054867e-01
33 16 7.06848901585055089e-01
34 16 7.22008413886923162e-01
35 16 7.52327438490659306e-01
36 16 7.97805975396263745e-01
37 16 8.28125000000000000e-01
1 17 9.37500000000000000e-01
2 17 9.03176575920298652e-01
3 17 8.51691439800746353e-01
4 17 8.17368015721045005e-01
5 17 8.00206303681194164e-01
6 17 8.00206303681194386e-01
7 17 8.17368015721045116e-01
8 17 8.51691439800746464e-01
9 17 9.03176575920298652e-01
10 17 9.37500000000000000e-01
11 17 9.03176575920298652e-01
12 17 8.51691439800746353e-01
13 17 8.17368015721045005e-01
14 17 8.00206303681194164e-01
15 17 8.00206303681194386e-01
16 17 8.17368015721045116e-01
17 17 8.51691439800746464e-01
18 17 9.03176575920298652e-01
19 17 9.37500000000000000e-01
20 17 9.03176575920298652e-01
21 17 8.51691439800746353e-01
22 17 8.17368015721045005e-01
23 17 8.00206303681194164e-01
24 17 8.00206303681194386e-01
25 17 8.17368015721045116e-01
26 17 8.51691439800746464e-01
27 17 9.03176575920298652e-01
28 17 9.37500000000000000e-01
29 17 9.03176575920298652e-01
30 17 8.51691439800746353e-01
31 17 8.17368015721045005e-01
32 17 8.00206303681194164e-01
33 17 8.00206303681194386e-01
34 17 8.17368015721045116e-01
35 17 8.51691439800746464e-01
36 17 9.03176575920298652e-01
37 17 9.37500000000000000e-01
1 18 1.00000000000000000e+00
2 18 9.63388347648318488e-01
3 18 9.08470869120796110e-01
4 18 8.71859216769114598e-01
5 18 8.53553390593273842e-01
6 18 8.53553390593273953e-01
7 18 8.71859216769114709e-01
8 18 9.08470869120796221e-01
9 18 9.63388347648318488e-01
10 18 1.00000000000000000e+00
11 18 9.63388347648318488e-01
12 18 9.08470869120796110e-01
13 18 8.71859216769114598e-01
14 18 8.53553390593273842e-01
15 18 8.53553390593273953e-01
16 18 8.71859216769114709e-01
17 18 9.08470869120796221e-01
18 18 9.63388347648318488e-01
19 18 1.00000000000000000e+00
20 18 9.63388347648318488e-01
21 18 9.08470869120796110e-01
22 18 8.71859216769114598e-01
23 18 8.53553390593273842e-01
24 18 8.53553390593273953e-01
25 18 8.71859216769114709e-01
26 18 9.08470869120796221e-01
27 18 9.63388347648318488e-01
28 18 1.00000000000000000e+00
29 18 9.63388347648318488e-01
30 18 9.08470869120796110e-01
31 18 8.71859216769114598e-01
32 18 8.53553390593273842e-01
33 18 8.53553390593273953e-01
34 18 8.71859216769114709e-01
35 18 9.08470869120796221e-01
36 18 9.63388347648318488e-01
37 18 1.00000000000000000e+00
