%%MatrixMarket matrix coordinate  real general
9 4 36
1 1 0.00000000000000000e+00
2 1 0.00000000000000000e+00
3 1 0.00000000000000000e+00
4 1 0.00000000000000000e+00
5 1 0.00000000000000000e+00
6 1 0.00000000000000000e+00
7 1 0.00000000000000000e+00
8 1 0.00000000000000000e+00
9 1 0.00000000000000000e+00
1 2 0.00000000000000000e+00
2 2 -9.99999999999999889e-01
3 2 -1.00000000000000000e+00
4 2 -1.00000000000000000e+00
5 2 -1.22464679914735321e-16
6 2 9.99999999999999889e-01
7 2 1.00000000000000000e+00
8 2 1.00000000000000022e+00
9 2 2.44929359829470641e-16
1 3 0.00000000000000000e+00
2 3 -9.99999999999999889e-01
3 3 -1.00000000000000000e+00
4 3 -1.00000000000000000e+00
5 3 -1.22464679914735321e-16
6 3 9.99999999999999889e-01
7 3 1.00000000000000000e+00
8 3 1.00000000000000022e+00
9 3 2.44929359829470641e-16
1 4 0.00000000000000000e+00
2 4 0.00000000000000000e+00
3 4 0.00000000000000000e+00
4 4 0.00000000000000000e+00
5 4 0.00000000000000000e+00
6 4 0.00000000000000000e+00
7 4 0.00000000000000000e+00
8 4 0.00000000000000000e+00
9 4 0.00000000000000000e+00
