%%MatrixMarket matrix coordinate  real general
9 4 36
1 1 1.00000000000000000e+00
2 1 1.00000000000000000e+00
3 1 1.00000000000000000e+00
4 1 1.00000000000000000e+00
5 1 1.00000000000000000e+00
6 1 1.00000000000000000e+00
7 1 1.00000000000000000e+00
8 1 1.00000000000000000e+00
9 1 1.00000000000000000e+00
1 2 1.00000000000000000e+00
2 2 1.00000000000000000e+00
3 2 1.00000000000000000e+00
4 2 1.00000000000000000e+00
5 2 1.00000000000000000e+00
6 2 1.00000000000000000e+00
7 2 1.00000000000000000e+00
8 2 1.00000000000000000e+00
9 2 1.00000000000000000e+00
1 3 -1.00000000000000000e+00
2 3 -1.00000000000000000e+00
3 3 -1.00000000000000000e+00
4 3 -1.00000000000000000e+00
5 3 -1.00000000000000000e+00
6 3 -1.00000000000000000e+00
7 3 -1.00000000000000000e+00
8 3 -1.00000000000000000e+00
9 3 -1.00000000000000000e+00
1 4 -1.00000000000000000e+00
2 4 -1.00000000000000000e+00
3 4 -1.00000000000000000e+00
4 4 -1.00000000000000000e+00
5 4 -1.00000000000000000e+00
6 4 -1.00000000000000000e+00
7 4 -1.00000000000000000e+00
8 4 -1.00000000000000000e+00
9 4 -1.00000000000000000e+00
