%%MatrixMarket matrix coordinate  real general
9 4 36
1 1 0.00000000000000000e+00
2 1 0.00000000000000000e+00
3 1 0.00000000000000000e+00
4 1 0.00000000000000000e+00
5 1 0.00000000000000000e+00
6 1 0.00000000000000000e+00
7 1 0.00000000000000000e+00
8 1 0.00000000000000000e+00
9 1 0.00000000000000000e+00
1 2 1.00000000000000000e+00
2 2 1.00000000000000000e+00
3 2 6.12323399573676604e-17
4 2 -9.99999999999999778e-01
5 2 -1.00000000000000000e+00
6 2 -1.00000000000000022e+00
7 2 -1.83697019872102969e-16
8 2 9.99999999999999778e-01
9 2 1.00000000000000000e+00
1 3 1.00000000000000000e+00
2 3 1.00000000000000000e+00
3 3 6.12323399573676604e-17
4 3 -9.99999999999999778e-01
5 3 -1.00000000000000000e+00
6 3 -1.00000000000000022e+00
7 3 -1.83697019872102969e-16
8 3 9.99999999999999778e-01
9 3 1.00000000000000000e+00
1 4 0.00000000000000000e+00
2 4 0.00000000000000000e+00
3 4 0.00000000000000000e+00
4 4 0.00000000000000000e+00
5 4 0.00000000000000000e+00
6 4 0.00000000000000000e+00
7 4 0.00000000000000000e+00
8 4 0.00000000000000000e+00
9 4 0.00000000000000000e+00
