%%MatrixMarket matrix coordinate  real general
9 4 36
1 1 1.00000000000000000e+00
2 1 7.07106781186547573e-01
3 1 1.00000000000000000e+00
4 1 7.07106781186547573e-01
5 1 1.00000000000000000e+00
6 1 7.07106781186547573e-01
7 1 1.00000000000000000e+00
8 1 7.07106781186547573e-01
9 1 1.00000000000000000e+00
1 2 5.00000000000000000e-01
2 2 3.53553390593273786e-01
3 2 5.00000000000000000e-01
4 2 3.53553390593273786e-01
5 2 5.00000000000000000e-01
6 2 3.53553390593273786e-01
7 2 5.00000000000000000e-01
8 2 3.53553390593273786e-01
9 2 5.00000000000000000e-01
1 3 5.00000000000000000e-01
2 3 3.53553390593273786e-01
3 3 5.00000000000000000e-01
4 3 3.53553390593273786e-01
5 3 5.00000000000000000e-01
6 3 3.53553390593273786e-01
7 3 5.00000000000000000e-01
8 3 3.53553390593273786e-01
9 3 5.00000000000000000e-01
1 4 1.00000000000000000e+00
2 4 7.07106781186547573e-01
3 4 1.00000000000000000e+00
4 4 7.07106781186547573e-01
5 4 1.00000000000000000e+00
6 4 7.07106781186547573e-01
7 4 1.00000000000000000e+00
8 4 7.07106781186547573e-01
9 4 1.00000000000000000e+00
