%%MatrixMarket matrix coordinate  real general
34 34 1156
1 1 0.00000000000000000e+00
2 1 2.23012079300187252e-02
3 1 6.72519599884323638e-02
4 1 1.12834956513251705e-01
5 1 1.58916472321746716e-01
6 1 2.05350206136080154e-01
7 1 2.51978086495205311e-01
8 1 2.98631377267970344e-01
9 1 3.45132085261840693e-01
10 1 3.91294661790150822e-01
11 1 4.36927978439020093e-01
12 1 4.81837545213567864e-01
13 1 5.25827927404512785e-01
14 1 5.68705306634210150e-01
15 1 6.10280122365216449e-01
16 1 6.50369723385751941e-01
17 1 6.88800955010706595e-01
18 1 7.25412607362388107e-01
19 1 7.60057653303947367e-01
20 1 7.92605211317161884e-01
21 1 8.22942178512991340e-01
22 1 8.50974491469989491e-01
23 1 8.76627986955611171e-01
24 1 8.99848849919983595e-01
25 1 9.20603651537845513e-01
26 1 9.38878994624438246e-01
27 1 9.54680796685007160e-01
28 1 9.68033251559624053e-01
29 1 9.78977518680848591e-01
30 1 9.87570194172242566e-01
31 1 9.93881620389746590e-01
32 1 9.97994090236534293e-01
33 1 1.00000000000000000e+00
34 1 1.00000000000000000e+00
1 2 0.00000000000000000e+00
2 2 2.26496643039252668e-02
3 2 6.83027718632516212e-02
4 2 1.14598002708771268e-01
5 2 1.61399542201773993e-01
6 2 2.08558803106956403e-01
7 2 2.55915244096692918e-01
8 2 3.03297492537782376e-01
9 2 3.50524774094056968e-01
10 2 3.97408640880621944e-01
11 2 4.43754978102129882e-01
12 2 4.89366256857529880e-01
13 2 5.34043988770208311e-01
14 2 5.77591327050369752e-01
15 2 6.19815749277172978e-01
16 2 6.60531750313654187e-01
17 2 6.99563469932748760e-01
18 2 7.36747179352425396e-01
19 2 7.71933554136821520e-01
20 2 8.04989667743992499e-01
21 2 8.35800650052256788e-01
22 2 8.64270967899208098e-01
23 2 8.90325299251792712e-01
24 2 9.13908988199983341e-01
25 2 9.34988083593124464e-01
26 2 9.53548978915445100e-01
27 2 9.69597684133210347e-01
28 2 9.83158771115243191e-01
29 2 9.94274042410236869e-01
30 2 1.00300097845618374e+00
31 2 1.00941102070833644e+00
32 2 1.01358774789648010e+00
33 2 1.01562500000000000e+00
34 2 1.01562500000000000e+00
1 3 0.00000000000000000e+00
2 3 2.33465770517383500e-02
3 3 7.04043956128901499e-02
4 3 1.18124095099810381e-01
5 3 1.66365681961828576e-01
6 3 2.14975997048708900e-01
7 3 2.63789559299668075e-01
8 3 3.12629723077406441e-01
9 3 3.61310151758489462e-01
10 3 4.09636599061564188e-01
11 3 4.57408977428349239e-01
12 3 5.04423680145453912e-01
13 3 5.50476111501599363e-01
14 3 5.95363367882688732e-01
15 3 6.38887003101086037e-01
16 3 6.80855804169459011e-01
17 3 7.21088499776833314e-01
18 3 7.59416323332499976e-01
19 3 7.95685355802569827e-01
20 3 8.29758580597653728e-01
21 3 8.61517593130787795e-01
22 3 8.90863920757645422e-01
23 3 9.17719923844155683e-01
24 3 9.42029264759982943e-01
25 3 9.63756947703682032e-01
26 3 9.82888947497458809e-01
27 3 9.99431459029616942e-01
28 3 1.01340981022648147e+00
29 3 1.02486708986901354e+00
30 3 1.03386254702406633e+00
31 3 1.04046982134551613e+00
32 3 1.04477506321637192e+00
33 3 1.04687499999999978e+00
34 3 1.04687500000000022e+00
1 4 0.00000000000000000e+00
2 4 2.40434897995514332e-02
3 4 7.25060193625286370e-02
4 4 1.21650187490849493e-01
5 4 1.71331821721883104e-01
6 4 2.21393190990461425e-01
7 4 2.71663874502643232e-01
8 4 3.21961953617030616e-01
9 4 3.72095529422922011e-01
10 4 4.21864557242506322e-01
11 4 4.71062976754568596e-01
12 4 5.19481103433377944e-01
13 4 5.66908234232990416e-01
14 4 6.13135408715007935e-01
15 4 6.57958256924999096e-01
16 4 7.01179858025263947e-01
17 4 7.42613529620917978e-01
18 4 7.82085467312574778e-01
19 4 8.19437157468318245e-01
20 4 8.54527493451315068e-01
21 4 8.87234536209318803e-01
22 4 9.17456873616082524e-01
23 4 9.45114548436518542e-01
24 4 9.70149541319982545e-01
25 4 9.92525811814239600e-01
26 4 1.01222891607947241e+00
27 4 1.02926523392602332e+00
28 4 1.04366084933771974e+00
29 4 1.05546013732779009e+00
30 4 1.06472411559194891e+00
31 4 1.07152862198269583e+00
32 4 1.07596237853626375e+00
33 4 1.07812499999999978e+00
34 4 1.07812500000000022e+00
1 5 0.00000000000000000e+00
2 5 2.47404025473645164e-02
3 5 7.46076431121671380e-02
4 5 1.25176279881888591e-01
5 5 1.76297961481937687e-01
6 5 2.27810384932213950e-01
7 5 2.79538189705618334e-01
8 5 3.31294184156654736e-01
9 5 3.82880907087354561e-01
10 5 4.34092515423448455e-01
11 5 4.84716976080788065e-01
12 5 5.34538526721301976e-01
13 5 5.83340356964381357e-01
14 5 6.30907449547327026e-01
15 5 6.77029510748912045e-01
16 5 7.21503911881068771e-01
17 5 7.64138559465002531e-01
18 5 8.04754611292649358e-01
19 5 8.43188959134066662e-01
20 5 8.79296406304976297e-01
21 5 9.12951479287849810e-01
22 5 9.44049826474519849e-01
23 5 9.72509173028881513e-01
24 5 9.98269817879982257e-01
25 5 1.02129467592479717e+00
26 5 1.04156888466148612e+00
27 5 1.05909900882242969e+00
28 5 1.07391188844895780e+00
29 5 1.08605318478656643e+00
30 5 1.09558568415983149e+00
31 5 1.10258742261987552e+00
32 5 1.10714969385615558e+00
33 5 1.10937499999999978e+00
34 5 1.10937500000000022e+00
1 6 0.00000000000000000e+00
2 6 2.54373152951776031e-02
3 6 7.67092668618056389e-02
4 6 1.28702372272927718e-01
5 6 1.81264101241992298e-01
6 6 2.34227578873966447e-01
7 6 2.87412504908593491e-01
8 6 3.40626414696278801e-01
9 6 3.93666284751787054e-01
10 6 4.46320473604390644e-01
11 6 4.98370975407007422e-01
12 6 5.49595950009225898e-01
13 6 5.99772479695772520e-01
14 6 6.48679490379646118e-01
15 6 6.96100764572824993e-01
16 6 7.41827965736873485e-01
17 6 7.85663589309087196e-01
18 6 8.27423755272724049e-01
19 6 8.66940760799815080e-01
20 6 9.04065319158637526e-01
21 6 9.38668422366380706e-01
22 6 9.70642779332957062e-01
23 6 9.99903797621244483e-01
24 6 1.02639009443998175e+00
25 6 1.05006354003535485e+00
26 6 1.07090885324349983e+00
27 6 1.08893278371883628e+00
28 6 1.10416292756019607e+00
29 6 1.11664623224534298e+00
30 6 1.12644725272771384e+00
31 6 1.13364622325705522e+00
32 6 1.13833700917604741e+00
33 6 1.14062499999999956e+00
34 6 1.14062500000000022e+00
1 7 0.00000000000000000e+00
2 7 2.61342280429906863e-02
3 7 7.88108906114441538e-02
4 7 1.32228464663966816e-01
5 7 1.86230241002046881e-01
6 7 2.40644772815718944e-01
7 7 2.95286820111568704e-01
8 7 3.49958645235902865e-01
9 7 4.04451662416219548e-01
10 7 4.58548431785332944e-01
11 7 5.12024974733226834e-01
12 7 5.64653373297149930e-01
13 7 6.16204602427163461e-01
14 7 6.66451531211965209e-01
15 7 7.15172018396737941e-01
16 7 7.62152019592678309e-01
17 7 8.07188619153171860e-01
18 7 8.50092899252798628e-01
19 7 8.90692562465563387e-01
20 7 9.28834232012298755e-01
21 7 9.64385365444911713e-01
22 7 9.97235732191394164e-01
23 7 1.02729842221360723e+00
24 7 1.05451037099998124e+00
25 7 1.07883240414591253e+00
26 7 1.10024882182551331e+00
27 7 1.11876655861524288e+00
28 7 1.13441396667143435e+00
29 7 1.14723927970411954e+00
30 7 1.15730882129559642e+00
31 7 1.16470502389423447e+00
32 7 1.16952432449593924e+00
33 7 1.17187499999999978e+00
34 7 1.17187500000000022e+00
1 8 0.00000000000000000e+00
2 8 2.68311407908037695e-02
3 8 8.09125143610826547e-02
4 8 1.35754557055005942e-01
5 8 1.91196380762101492e-01
6 8 2.47061966757471441e-01
7 8 3.03161135314543917e-01
8 8 3.59290875775526930e-01
9 8 4.15237040080652042e-01
10 8 4.70776389966275133e-01
11 8 5.25678974059446191e-01
12 8 5.79710796585073962e-01
13 8 6.32636725158554403e-01
14 8 6.84223572044284190e-01
15 8 7.34243272220651000e-01
16 8 7.82476073448483134e-01
17 8 8.28713648997256525e-01
18 8 8.72762043232873208e-01
19 8 9.14444364131311693e-01
20 8 9.53603144865959984e-01
21 8 9.90102308523442720e-01
22 8 1.02382868504983127e+00
23 8 1.05469304680597031e+00
24 8 1.08263064755998095e+00
25 8 1.10760126825647021e+00
26 8 1.12958879040752702e+00
27 8 1.14860033351164925e+00
28 8 1.16466500578267262e+00
29 8 1.17783232716289588e+00
30 8 1.18817038986347923e+00
31 8 1.19576382453141394e+00
32 8 1.20071163981583107e+00
33 8 1.20312499999999978e+00
34 8 1.20312500000000022e+00
1 9 0.00000000000000000e+00
2 9 2.75280535386168528e-02
3 9 8.30141381107211696e-02
4 9 1.39280649446045068e-01
5 9 1.96162520522156075e-01
6 9 2.53479160699223938e-01
7 9 3.11035450517519074e-01
8 9 3.68623106315150939e-01
9 9 4.26022417745084592e-01
10 9 4.83004348147217266e-01
11 9 5.39332973385665548e-01
12 9 5.94768219872997994e-01
13 9 6.49068847889945344e-01
14 9 7.01995612876603281e-01
15 9 7.53314526044563948e-01
16 9 8.02800127304287847e-01
17 9 8.50238678841341078e-01
18 9 8.95431187212947899e-01
19 9 9.38196165797060000e-01
20 9 9.78372057719621435e-01
21 9 1.01581925160197351e+00
22 9 1.05042163790826848e+00
23 9 1.08208767139833317e+00
24 9 1.11075092411998044e+00
25 9 1.13637013236702789e+00
26 9 1.15892875898954073e+00
27 9 1.17843410840805585e+00
28 9 1.19491604489391090e+00
29 9 1.20842537462167243e+00
30 9 1.21903195843136181e+00
31 9 1.22682262516859342e+00
32 9 1.23189895513572290e+00
33 9 1.23437500000000000e+00
34 9 1.23437500000000022e+00
1 10 0.00000000000000000e+00
2 10 2.82249662864299394e-02
3 10 8.51157618603596844e-02
4 10 1.42806741837084195e-01
5 10 2.01128660282210658e-01
6 10 2.59896354640976435e-01
7 10 3.18909765720494232e-01
8 10 3.77955336854775004e-01
9 10 4.36807795409517141e-01
10 10 4.95232306328159511e-01
11 10 5.52986972711884905e-01
12 10 6.09825643160922026e-01
13 10 6.65500970621336396e-01
14 10 7.19767653708922373e-01
15 10 7.72385779868476896e-01
16 10 8.23124181160092561e-01
17 10 8.71763708685425631e-01
18 10 9.18100331193022590e-01
19 10 9.61947967462808307e-01
20 10 1.00314097057328278e+00
21 10 1.04153619468050440e+00
22 10 1.07701459076670591e+00
23 10 1.10948229599069603e+00
24 10 1.13887120067997993e+00
25 10 1.16513899647758579e+00
26 10 1.18826872757155444e+00
27 10 1.20826788330446222e+00
28 10 1.22516708400514895e+00
29 10 1.23901842208044899e+00
30 10 1.24989352699924439e+00
31 10 1.25788142580577267e+00
32 10 1.26308627045561450e+00
33 10 1.26562499999999978e+00
34 10 1.26562500000000022e+00
1 11 0.00000000000000000e+00
2 11 2.89218790342430226e-02
3 11 8.72173856099981853e-02
4 11 1.46332834228123321e-01
5 11 2.06094800042265214e-01
6 11 2.66313548582728932e-01
7 11 3.26784080923469444e-01
8 11 3.87287567394399013e-01
9 11 4.47593173073949691e-01
10 11 5.07460264509101755e-01
11 11 5.66640972038104374e-01
12 11 6.24883066448846058e-01
13 11 6.81933093352727338e-01
14 11 7.37539694541241464e-01
15 11 7.91457033692389733e-01
16 11 8.43448235015897385e-01
17 11 8.93288738529510296e-01
18 11 9.40769475173097280e-01
19 11 9.85699769128556724e-01
20 11 1.02790988342694400e+00
21 11 1.06725313775903530e+00
22 11 1.10360754362514291e+00
23 11 1.13687692058305889e+00
24 11 1.16699147723997942e+00
25 11 1.19390786058814347e+00
26 11 1.21760869615356815e+00
27 11 1.23810165820086859e+00
28 11 1.25541812311638723e+00
29 11 1.26961146953922532e+00
30 11 1.28075509556712697e+00
31 11 1.28894022644295236e+00
32 11 1.29427358577550611e+00
33 11 1.29687500000000000e+00
34 11 1.29687500000000000e+00
1 12 0.00000000000000000e+00
2 12 2.96187917820561059e-02
3 12 8.93190093596367002e-02
4 12 1.49858926619162447e-01
5 12 2.11060939802319797e-01
6 12 2.72730742524481429e-01
7 12 3.34658396126444602e-01
8 12 3.96619797934023133e-01
9 12 4.58378550738382184e-01
10 12 5.19688222690043888e-01
11 12 5.80294971364323731e-01
12 12 6.39940489736770202e-01
13 12 6.98365216084118390e-01
14 12 7.55311735373560555e-01
15 12 8.10528287516302792e-01
16 12 8.63772288871702099e-01
17 12 9.14813768373594960e-01
18 12 9.63438619153172082e-01
19 12 1.00945157079430503e+00
20 12 1.05267879628060546e+00
21 12 1.09297008083756642e+00
22 12 1.13020049648358012e+00
23 12 1.16427154517542175e+00
24 12 1.19511175379997892e+00
25 12 1.22267672469870115e+00
26 12 1.24694866473558186e+00
27 12 1.26793543309727519e+00
28 12 1.28566916222762528e+00
29 12 1.30020451699800188e+00
30 12 1.31161666413500955e+00
31 12 1.31999902708013206e+00
32 12 1.32546090109539794e+00
33 12 1.32812500000000000e+00
34 12 1.32812500000000022e+00
1 13 0.00000000000000000e+00
2 13 3.03157045298691856e-02
3 13 9.14206331092752150e-02
4 13 1.53385019010201545e-01
5 13 2.16027079562374380e-01
6 13 2.79147936466233926e-01
7 13 3.42532711329419759e-01
8 13 4.05952028473647253e-01
9 13 4.69163928402814678e-01
10 13 5.31916180870986022e-01
11 13 5.93948970690543088e-01
12 13 6.54997913024694123e-01
13 13 7.14797338815509331e-01
14 13 7.73083776205879536e-01
15 13 8.29599541340215851e-01
16 13 8.84096342727506701e-01
17 13 9.36338798217679624e-01
18 13 9.86107763133246662e-01
19 13 1.03320337246005334e+00
20 13 1.07744770913426668e+00
21 13 1.11868702391609753e+00
22 13 1.15679344934201733e+00
23 13 1.19166616976778461e+00
24 13 1.22323203035997841e+00
25 13 1.25144558880925882e+00
26 13 1.27628863331759557e+00
27 13 1.29776920799368156e+00
28 13 1.31592020133886356e+00
29 13 1.33079756445677844e+00
30 13 1.34247823270289235e+00
31 13 1.35105782771731175e+00
32 13 1.35664821641528954e+00
33 13 1.35937499999999978e+00
34 13 1.35937500000000022e+00
1 14 0.00000000000000000e+00
2 14 3.10126172776822723e-02
3 14 9.35222568589137160e-02
4 14 1.56911111401240672e-01
5 14 2.20993219322428963e-01
6 14 2.85565130407986478e-01
7 14 3.50407026532394916e-01
8 14 4.15284259013271317e-01
9 14 4.79949306067247172e-01
10 14 5.44144139051928155e-01
11 14 6.07602970016762556e-01
12 14 6.70055336312618044e-01
13 14 7.31229461546900272e-01
14 14 7.90855817038198627e-01
15 14 8.48670795164128910e-01
16 14 9.04420396583311414e-01
17 14 9.57863828061764400e-01
18 14 1.00877690711332146e+00
19 14 1.05695517412580164e+00
20 14 1.10221662198792814e+00
21 14 1.14440396699462865e+00
22 14 1.18338640220045432e+00
23 14 1.21906079436014747e+00
24 14 1.25135230691997790e+00
25 14 1.28021445291981650e+00
26 14 1.30562860189960928e+00
27 14 1.32760298289008793e+00
28 14 1.34617124045010184e+00
29 14 1.36139061191555499e+00
30 14 1.37333980127077471e+00
31 14 1.38211662835449123e+00
32 14 1.38783553173518115e+00
33 14 1.39062499999999978e+00
34 14 1.39062500000000022e+00
1 15 0.00000000000000000e+00
2 15 3.17095300254953555e-02
3 15 9.56238806085522308e-02
4 15 1.60437203792279770e-01
5 15 2.25959359082483546e-01
6 15 2.91982324349738975e-01
7 15 3.58281341735370129e-01
8 15 4.24616489552895382e-01
9 15 4.90734683731679666e-01
10 15 5.56372097232870400e-01
11 15 6.21256969342982024e-01
12 15 6.85112759600541965e-01
13 15 7.47661584278291325e-01
14 15 8.08627857870517830e-01
15 15 8.67742048988041859e-01
16 15 9.24744450439116128e-01
17 15 9.79388857905848953e-01
18 15 1.03144605109339604e+00
19 15 1.08070697579154995e+00
20 15 1.12698553484158936e+00
21 15 1.17012091007315977e+00
22 15 1.20997935505889154e+00
23 15 1.24645541895251011e+00
24 15 1.27947258347997739e+00
25 15 1.30898331703037418e+00
26 15 1.33496857048162321e+00
27 15 1.35743675778649453e+00
28 15 1.37642227956133989e+00
29 15 1.39198365937433133e+00
30 15 1.40420136983865729e+00
31 15 1.41317542899167070e+00
32 15 1.41902284705507253e+00
33 15 1.42187499999999978e+00
34 15 1.42187500000000022e+00
1 16 0.00000000000000000e+00
2 16 3.24064427733084387e-02
3 16 9.77255043581907457e-02
4 16 1.63963296183318896e-01
5 16 2.30925498842538157e-01
6 16 2.98399518291491472e-01
7 16 3.66155656938345286e-01
8 16 4.33948720092519391e-01
9 16 5.01520061396112160e-01
10 16 5.68600055413812644e-01
11 16 6.34910968669201381e-01
12 16 7.00170182888465886e-01
13 16 7.64093707009682488e-01
14 16 8.26399898702836810e-01
15 16 8.86813302811954807e-01
16 16 9.45068504294920841e-01
17 16 1.00091388774993351e+00
18 16 1.05411519507347062e+00
19 16 1.10445877745729848e+00
20 16 1.15175444769525059e+00
21 16 1.19583785315169067e+00
22 16 1.23657230791732853e+00
23 16 1.27385004354487297e+00
24 16 1.30759286003997666e+00
25 16 1.33775218114093186e+00
26 16 1.36430853906363692e+00
27 16 1.38727053268290090e+00
28 16 1.40667331867257839e+00
29 16 1.42257670683310788e+00
30 16 1.43506293840653965e+00
31 16 1.44423422962885040e+00
32 16 1.45021016237496414e+00
33 16 1.45312499999999978e+00
34 16 1.45312500000000022e+00
1 17 0.00000000000000000e+00
2 17 3.31033555211215288e-02
3 17 9.98271281078292605e-02
4 17 1.67489388574358022e-01
5 17 2.35891638602592740e-01
6 17 3.04816712233243914e-01
7 17 3.74029972141320499e-01
8 17 4.43280950632143511e-01
9 17 5.12305439060544709e-01
10 17 5.80828013594754888e-01
11 17 6.48564967995420738e-01
12 17 7.15227606176389918e-01
13 17 7.80525829741073429e-01
14 17 8.44171939535155902e-01
15 17 9.05884556635867866e-01
16 17 9.65392558150725555e-01
17 17 1.02243891759401806e+00
18 17 1.07678433905354520e+00
19 17 1.12821057912304679e+00
20 17 1.17652336054891182e+00
21 17 1.22155479623022156e+00
22 17 1.26316526077576574e+00
23 17 1.30124466813723583e+00
24 17 1.33571313659997593e+00
25 17 1.36652104525148954e+00
26 17 1.39364850764565062e+00
27 17 1.41710430757930750e+00
28 17 1.43692435778381666e+00
29 17 1.45316975429188422e+00
30 17 1.46592450697442223e+00
31 17 1.47529303026603009e+00
32 17 1.48139747769485597e+00
33 17 1.48437499999999978e+00
34 17 1.48437500000000022e+00
1 18 0.00000000000000000e+00
2 18 3.38002682689346190e-02
3 18 1.01928751857467761e-01
4 18 1.71015480965397149e-01
5 18 2.40857778362647351e-01
6 18 3.11233906174996411e-01
7 18 3.81904287344295601e-01
8 18 4.52613181171767631e-01
9 18 5.23090816724977259e-01
10 18 5.93055971775697133e-01
11 18 6.62218967321640095e-01
12 18 7.30285029464313951e-01
13 18 7.96957952472464370e-01
14 18 8.61943980367475104e-01
15 18 9.24955810459780814e-01
16 18 9.85716612006530379e-01
17 18 1.04396394743810261e+00
18 18 1.09945348303361978e+00
19 18 1.15196238078879509e+00
20 18 1.20129227340257327e+00
21 18 1.24727173930875268e+00
22 18 1.28975821363420273e+00
23 18 1.32863929272959869e+00
24 18 1.36383341315997542e+00
25 18 1.39528990936204722e+00
26 18 1.42298847622766456e+00
27 18 1.44693808247571409e+00
28 18 1.46717539689505516e+00
29 18 1.48376280175066055e+00
30 18 1.49678607554230503e+00
31 18 1.50635183090321001e+00
32 18 1.51258479301474780e+00
33 18 1.51562499999999978e+00
34 18 1.51562500000000022e+00
1 19 0.00000000000000000e+00
2 19 3.44971810167477091e-02
3 19 1.04030375607106276e-01
4 19 1.74541573356436247e-01
5 19 2.45823918122701934e-01
6 19 3.17651100116748908e-01
7 19 3.89778602547270758e-01
8 19 4.61945411711391751e-01
9 19 5.33876194389409808e-01
10 19 6.05283929956639266e-01
11 19 6.75872966647859452e-01
12 19 7.45342452752237983e-01
13 19 8.13390075203855423e-01
14 19 8.79716021199794196e-01
15 19 9.44027064283693873e-01
16 19 1.00604066586233509e+00
17 19 1.06548897728218717e+00
18 19 1.12212262701369458e+00
19 19 1.17571418245454340e+00
20 19 1.22606118625623450e+00
21 19 1.27298868238728380e+00
22 19 1.31635116649263972e+00
23 19 1.35603391732196155e+00
24 19 1.39195368971997491e+00
25 19 1.42405877347260490e+00
26 19 1.45232844480967804e+00
27 19 1.47677185737212069e+00
28 19 1.49742643600629344e+00
29 19 1.51435584920943689e+00
30 19 1.52764764411018761e+00
31 19 1.53741063154038948e+00
32 19 1.54377210833463940e+00
33 19 1.54687499999999978e+00
34 19 1.54687500000000044e+00
1 20 0.00000000000000000e+00
2 20 3.51940937645607924e-02
3 20 1.06131999356744791e-01
4 20 1.78067665747475345e-01
5 20 2.50790057882756490e-01
6 20 3.24068294058501460e-01
7 20 3.97652917750245916e-01
8 20 4.71277642251015871e-01
9 20 5.44661572053842358e-01
10 20 6.17511888137581511e-01
11 20 6.89526965974078698e-01
12 20 7.60399876040162015e-01
13 20 8.29822197935246586e-01
14 20 8.97488062032113287e-01
15 20 9.63098318107606821e-01
16 20 1.02636471971814003e+00
17 20 1.08701400712627172e+00
18 20 1.14479177099376916e+00
19 20 1.19946598412029193e+00
20 20 1.25083009910989595e+00
21 20 1.29870562546581469e+00
22 20 1.34294411935107671e+00
23 20 1.38342854191432441e+00
24 20 1.42007396627997418e+00
25 20 1.45282763758316258e+00
26 20 1.48166841339169175e+00
27 20 1.50660563226852728e+00
28 20 1.52767747511753149e+00
29 20 1.54494889666821344e+00
30 20 1.55850921267807019e+00
31 20 1.56846943217756896e+00
32 20 1.57495942365453079e+00
33 20 1.57812499999999978e+00
34 20 1.57812500000000044e+00
1 21 0.00000000000000000e+00
2 21 3.58910065123738756e-02
3 21 1.08233623106383306e-01
4 21 1.81593758138514472e-01
5 21 2.55756197642811045e-01
6 21 3.30485488000253957e-01
7 21 4.05527232953221073e-01
8 21 4.80609872790639936e-01
9 21 5.55446949718274796e-01
10 21 6.29739846318523755e-01
11 21 7.03180965300298055e-01
12 21 7.75457299328085936e-01
13 21 8.46254320666637638e-01
14 21 9.15260102864432157e-01
15 21 9.82169571931519658e-01
16 21 1.04668877357394474e+00
17 21 1.10853903697035627e+00
18 21 1.16746091497384352e+00
19 21 1.22321778578604046e+00
20 21 1.27559901196355741e+00
21 21 1.32442256854434581e+00
22 21 1.36953707220951393e+00
23 21 1.41082316650668749e+00
24 21 1.44819424283997367e+00
25 21 1.48159650169372048e+00
26 21 1.51100838197370524e+00
27 21 1.53643940716493366e+00
28 21 1.55792851422876999e+00
29 21 1.57554194412699000e+00
30 21 1.58937078124595255e+00
31 21 1.59952823281474843e+00
32 21 1.60614673897442239e+00
33 21 1.60937499999999978e+00
34 21 1.60937500000000044e+00
1 22 0.00000000000000000e+00
2 22 3.65879192601869588e-02
3 22 1.10335246856021821e-01
4 22 1.85119850529553570e-01
5 22 2.60722337402865656e-01
6 22 3.36902681942006399e-01
7 22 4.13401548156196230e-01
8 22 4.89942103330264001e-01
9 22 5.66232327382707346e-01
10 22 6.41967804499465999e-01
11 22 7.16834964626517412e-01
12 22 7.90514722616009968e-01
13 22 8.62686443398028691e-01
14 22 9.33032143696751359e-01
15 22 1.00124082575543283e+00
16 22 1.06701282742974946e+00
17 22 1.13006406681444083e+00
18 22 1.19013005895391810e+00
19 22 1.24696958745178876e+00
20 22 1.30036792481721863e+00
21 22 1.35013951162287693e+00
22 22 1.39613002506795114e+00
23 22 1.43821779109905035e+00
24 22 1.47631451939997316e+00
25 22 1.51036536580427794e+00
26 22 1.54034835055571895e+00
27 22 1.56627318206134047e+00
28 22 1.58817955334000827e+00
29 22 1.60613499158576634e+00
30 22 1.62023234981383490e+00
31 22 1.63058703345192813e+00
32 22 1.63733405429431422e+00
33 22 1.64062499999999978e+00
34 22 1.64062500000000044e+00
1 23 0.00000000000000000e+00
2 23 3.72848320080000420e-02
3 23 1.12436870605660336e-01
4 23 1.88645942920592696e-01
5 23 2.65688477162920211e-01
6 23 3.43319875883758951e-01
7 23 4.21275863359171332e-01
8 23 4.99274333869888065e-01
9 23 5.77017705047139784e-01
10 23 6.54195762680408244e-01
11 23 7.30488963952736770e-01
12 23 8.05572145903934000e-01
13 23 8.79118566129419743e-01
14 23 9.50804184529070340e-01
15 23 1.02031207957934589e+00
16 23 1.08733688128555417e+00
17 23 1.15158909665852538e+00
18 23 1.21279920293399268e+00
19 23 1.27072138911753707e+00
20 23 1.32513683767088009e+00
21 23 1.37585645470140783e+00
22 23 1.42272297792638835e+00
23 23 1.46561241569141298e+00
24 23 1.50443479595997265e+00
25 23 1.53913422991483562e+00
26 23 1.56968831913773266e+00
27 23 1.59610695695774685e+00
28 23 1.61843059245124610e+00
29 23 1.63672803904454311e+00
30 23 1.65109391838171771e+00
31 23 1.66164583408910782e+00
32 23 1.66852136961420605e+00
33 23 1.67187499999999978e+00
34 23 1.67187500000000044e+00
1 24 0.00000000000000000e+00
2 24 3.79817447558131252e-02
3 24 1.14538494355298837e-01
4 24 1.92172035311631795e-01
5 24 2.70654616922974822e-01
6 24 3.49737069825511393e-01
7 24 4.29150178562146489e-01
8 24 5.08606564409512130e-01
9 24 5.87803082711572333e-01
10 24 6.66423720861350377e-01
11 24 7.44142963278956238e-01
12 24 8.20629569191857922e-01
13 24 8.95550688860810795e-01
14 24 9.68576225361389431e-01
15 24 1.03938333340325895e+00
16 24 1.10766093514135888e+00
17 24 1.17311412650260993e+00
18 24 1.23546834691406726e+00
19 24 1.29447319078328538e+00
20 24 1.34990575052454131e+00
21 24 1.40157339777993872e+00
22 24 1.44931593078482535e+00
23 24 1.49300704028377562e+00
24 24 1.53255507251997214e+00
25 24 1.56790309402539307e+00
26 24 1.59902828771974614e+00
27 24 1.62594073185415322e+00
28 24 1.64868163156248437e+00
29 24 1.66732108650331967e+00
30 24 1.68195548694960029e+00
31 24 1.69270463472628729e+00
32 24 1.69970868493409766e+00
33 24 1.70312499999999978e+00
34 24 1.70312500000000044e+00
1 25 0.00000000000000000e+00
2 25 3.86786575036262084e-02
3 25 1.16640118104937351e-01
4 25 1.95698127702670893e-01
5 25 2.75620756683029378e-01
6 25 3.56154263767263890e-01
7 25 4.37024493765121702e-01
8 25 5.17938794949136194e-01
9 25 5.98588460376004883e-01
10 25 6.78651679042292622e-01
11 25 7.57796962605175595e-01
12 25 8.35686992479781843e-01
13 25 9.11982811592201736e-01
14 25 9.86348266193708412e-01
15 25 1.05845458722717201e+00
16 25 1.12798498899716382e+00
17 25 1.19463915634669449e+00
18 25 1.25813749089414184e+00
19 25 1.31822499244903368e+00
20 25 1.37467466337820254e+00
21 25 1.42729034085846984e+00
22 25 1.47590888364326256e+00
23 25 1.52040166487613870e+00
24 25 1.56067534907997141e+00
25 25 1.59667195813595075e+00
26 25 1.62836825630175963e+00
27 25 1.65577450675055937e+00
28 25 1.67893267067372265e+00
29 25 1.69791413396209623e+00
30 25 1.71281705551748287e+00
31 25 1.72376343536346677e+00
32 25 1.73089600025398926e+00
33 25 1.73437500000000000e+00
34 25 1.73437500000000044e+00
1 26 0.00000000000000000e+00
2 26 3.93755702514392916e-02
3 26 1.18741741854575880e-01
4 26 1.99224220093709992e-01
5 26 2.80586896443083988e-01
6 26 3.62571457709016443e-01
7 26 4.44898808968096915e-01
8 26 5.27271025488760259e-01
9 26 6.09373838040437432e-01
10 26 6.90879637223234866e-01
11 26 7.71450961931395063e-01
12 26 8.50744415767705875e-01
13 26 9.28414934323592789e-01
14 26 1.00412030702602761e+00
15 26 1.07752584105108506e+00
16 26 1.14830904285296853e+00
17 26 1.21616418619077904e+00
18 26 1.28080663487421642e+00
19 26 1.34197679411478199e+00
20 26 1.39944357623186399e+00
21 26 1.45300728393700074e+00
22 26 1.50250183650169977e+00
23 26 1.54779628946850178e+00
24 26 1.58879562563997068e+00
25 26 1.62544082224650843e+00
26 26 1.65770822488377334e+00
27 26 1.68560828164696574e+00
28 26 1.70918370978496115e+00
29 26 1.72850718142087256e+00
30 26 1.74367862408536545e+00
31 26 1.75482223600064624e+00
32 26 1.76208331557388087e+00
33 26 1.76562500000000000e+00
34 26 1.76562500000000022e+00
1 27 0.00000000000000000e+00
2 27 4.00724829992523818e-02
3 27 1.20843365604214395e-01
4 27 2.02750312484749118e-01
5 27 2.85553036203138599e-01
6 27 3.68988651650768940e-01
7 27 4.52773124171072017e-01
8 27 5.36603256028384323e-01
9 27 6.20159215704870093e-01
10 27 7.03107595404176999e-01
11 27 7.85104961257614309e-01
12 27 8.65801839055629796e-01
13 27 9.44847057054983952e-01
14 27 1.02189234785834659e+00
15 27 1.09659709487499812e+00
16 27 1.16863309670877324e+00
17 27 1.23768921603486337e+00
18 27 1.30347577885429078e+00
19 27 1.36572859578053030e+00
20 27 1.42421248908552500e+00
21 27 1.47872422701553186e+00
22 27 1.52909478936013721e+00
23 27 1.57519091406086464e+00
24 27 1.61691590219997017e+00
25 27 1.65420968635706611e+00
26 27 1.68704819346578705e+00
27 27 1.71544205654337234e+00
28 27 1.73943474889619942e+00
29 27 1.75910022887964890e+00
30 27 1.77454019265324825e+00
31 27 1.78588103663782571e+00
32 27 1.79327063089377248e+00
33 27 1.79687500000000000e+00
34 27 1.79687500000000000e+00
1 28 0.00000000000000000e+00
2 28 4.07693957470654719e-02
3 28 1.22944989353852910e-01
4 28 2.06276404875788244e-01
5 28 2.90519175963193155e-01
6 28 3.75405845592521492e-01
7 28 4.60647439374047174e-01
8 28 5.45935486568008388e-01
9 28 6.30944593369302642e-01
10 28 7.15335553585119244e-01
11 28 7.98758960583833666e-01
12 28 8.80859262343553828e-01
13 28 9.61279179786374893e-01
14 28 1.03966438869066558e+00
15 28 1.11566834869891118e+00
16 28 1.18895715056457796e+00
17 28 1.25921424587894792e+00
18 28 1.32614492283436558e+00
19 28 1.38948039744627860e+00
20 28 1.44898140193918623e+00
21 28 1.50444117009406253e+00
22 28 1.55568774221857442e+00
23 28 1.60258553865322706e+00
24 28 1.64503617875996966e+00
25 28 1.68297855046762379e+00
26 28 1.71638816204780076e+00
27 28 1.74527583143977894e+00
28 28 1.76968578800743770e+00
29 28 1.78969327633842568e+00
30 28 1.80540176122113105e+00
31 28 1.81693983727500541e+00
32 28 1.82445794621366431e+00
33 28 1.82812500000000000e+00
34 28 1.82812500000000000e+00
1 29 0.00000000000000000e+00
2 29 4.14663084948785621e-02
3 29 1.25046613103491411e-01
4 29 2.09802497266827370e-01
5 29 2.95485315723247766e-01
6 29 3.81823039534273989e-01
7 29 4.68521754577022331e-01
8 29 5.55267717107632452e-01
9 29 6.41729971033735191e-01
10 29 7.27563511766061488e-01
11 29 8.12412959910053023e-01
12 29 8.95916685631477749e-01
13 29 9.77711302517765946e-01
14 29 1.05743642952298478e+00
15 29 1.13473960252282424e+00
16 29 1.20928120442038267e+00
17 29 1.28073927572303248e+00
18 29 1.34881406681444016e+00
19 29 1.41323219911202691e+00
20 29 1.47375031479284746e+00
21 29 1.53015811317259365e+00
22 29 1.58228069507701163e+00
23 29 1.62998016324558992e+00
24 29 1.67315645531996915e+00
25 29 1.71174741457818125e+00
26 29 1.74572813062981469e+00
27 29 1.77510960633618553e+00
28 29 1.79993682711867620e+00
29 29 1.82028632379720245e+00
30 29 1.83626332978901341e+00
31 29 1.84799863791218510e+00
32 29 1.85564526153355591e+00
33 29 1.85937500000000022e+00
34 29 1.85937500000000000e+00
1 30 0.00000000000000000e+00
2 30 4.21632212426916453e-02
3 30 1.27148236853129926e-01
4 30 2.13328589657866496e-01
5 30 3.00451455483302377e-01
6 30 3.88240233476026486e-01
7 30 4.76396069779997544e-01
8 30 5.64599947647256406e-01
9 30 6.52515348698167630e-01
10 30 7.39791469947003733e-01
11 30 8.26066959236272491e-01
12 30 9.10974108919401782e-01
13 30 9.94143425249156887e-01
14 30 1.07520847035530376e+00
15 30 1.15381085634673730e+00
16 30 1.22960525827618739e+00
17 30 1.30226430556711703e+00
18 30 1.37148321079451496e+00
19 30 1.43698400077777522e+00
20 30 1.49851922764650869e+00
21 30 1.55587505625112454e+00
22 30 1.60887364793544885e+00
23 30 1.65737478783795256e+00
24 30 1.70127673187996864e+00
25 30 1.74051627868873893e+00
26 30 1.77506809921182840e+00
27 30 1.80494338123259190e+00
28 30 1.83018786622991447e+00
29 30 1.85087937125597923e+00
30 30 1.86712489835689599e+00
31 30 1.87905743854936480e+00
32 30 1.88683257685344752e+00
33 30 1.89062500000000022e+00
34 30 1.89062500000000000e+00
1 31 0.00000000000000000e+00
2 31 4.28601339905047354e-02
3 31 1.29249860602768440e-01
4 31 2.16854682048905595e-01
5 31 3.05417595243356987e-01
6 31 3.94657427417779039e-01
7 31 4.84270384982972757e-01
8 31 5.73932178186880360e-01
9 31 6.63300726362600179e-01
10 31 7.52019428127945977e-01
11 31 8.39720958562491848e-01
12 31 9.26031532207325703e-01
13 31 1.01057554798054783e+00
14 31 1.09298051118762274e+00
15 31 1.17288211017065036e+00
16 31 1.24992931213199188e+00
17 31 1.32378933541120158e+00
18 31 1.39415235477458954e+00
19 31 1.46073580244352375e+00
20 31 1.52328814050017036e+00
21 31 1.58159199932965544e+00
22 31 1.63546660079388606e+00
23 31 1.68476941243031519e+00
24 31 1.72939700843996813e+00
25 31 1.76928514279929661e+00
26 31 1.80440806779384211e+00
27 31 1.83477715612899850e+00
28 31 1.86043890534115253e+00
29 31 1.88147241871475579e+00
30 31 1.89798646692477879e+00
31 31 1.91011623918654450e+00
32 31 1.91801989217333912e+00
33 31 1.92187500000000022e+00
34 31 1.92187500000000000e+00
1 32 0.00000000000000000e+00
2 32 4.35570467383178256e-02
3 32 1.31351484352406955e-01
4 32 2.20380774439944721e-01
5 32 3.10383735003411543e-01
6 32 4.01074621359531536e-01
7 32 4.92144700185947859e-01
8 32 5.83264408726504424e-01
9 32 6.74086104027032618e-01
10 32 7.64247386308888221e-01
11 32 8.53374957888711316e-01
12 32 9.41088955495249735e-01
13 32 1.02700767071193888e+00
14 32 1.11075255201994172e+00
15 32 1.19195336399456342e+00
16 32 1.27025336598779659e+00
17 32 1.34531436525528614e+00
18 32 1.41682149875466412e+00
19 32 1.48448760410927205e+00
20 32 1.54805705335383181e+00
21 32 1.60730894240818656e+00
22 32 1.66205955365232305e+00
23 32 1.71216403702267828e+00
24 32 1.75751728499996784e+00
25 32 1.79805400690985451e+00
26 32 1.83374803637585582e+00
27 32 1.86461093102540487e+00
28 32 1.89068994445239080e+00
29 32 1.91206546617353235e+00
30 32 1.92884803549266137e+00
31 32 1.94117503982372397e+00
32 32 1.94920720749323095e+00
33 32 1.95312500000000000e+00
34 32 1.95312500000000000e+00
1 33 0.00000000000000000e+00
2 33 4.42539594861309088e-02
3 33 1.33453108102045470e-01
4 33 2.23906866830983847e-01
5 33 3.15349874763466098e-01
6 33 4.07491815301284033e-01
7 33 5.00019015388923016e-01
8 33 5.92596639266128600e-01
9 33 6.84871481691465056e-01
10 33 7.76475344489830466e-01
11 33 8.67028957214930562e-01
12 33 9.56146378783173767e-01
13 33 1.04343979344332993e+00
14 33 1.12852459285226070e+00
15 33 1.21102461781847626e+00
16 33 1.29057741984360153e+00
17 33 1.36683939509937091e+00
18 33 1.43949064273473892e+00
19 33 1.50823940577502058e+00
20 33 1.57282596620749304e+00
21 33 1.63302588548671723e+00
22 33 1.68865250651076027e+00
23 33 1.73955866161504091e+00
24 33 1.78563756155996733e+00
25 33 1.82682287102041219e+00
26 33 1.86308800495786953e+00
27 33 1.89444470592181102e+00
28 33 1.92094098356362908e+00
29 33 1.94265851363230890e+00
30 33 1.95970960406054395e+00
31 33 1.97223384046090344e+00
32 33 1.98039452281312256e+00
33 33 1.98437500000000000e+00
34 33 1.98437500000000000e+00
1 34 0.00000000000000000e+00
2 34 4.46024158600374504e-02
3 34 1.34503919976864728e-01
4 34 2.25669913026503410e-01
5 34 3.17832944643493431e-01
6 34 4.10700412272160309e-01
7 34 5.03956172990410622e-01
8 34 5.97262754535940688e-01
9 34 6.90264170523681386e-01
10 34 7.82589323580301643e-01
11 34 8.73855956878040185e-01
12 34 9.63675090427135728e-01
13 34 1.05165585480902557e+00
14 34 1.13741061326842030e+00
15 34 1.22056024473043290e+00
16 34 1.30073944677150388e+00
17 34 1.37760191002141319e+00
18 34 1.45082521472477621e+00
19 34 1.52011530660789473e+00
20 34 1.58521042263432377e+00
21 34 1.64588435702598268e+00
22 34 1.70194898293997898e+00
23 34 1.75325597391122234e+00
24 34 1.79969769983996719e+00
25 34 1.84120730307569103e+00
26 34 1.87775798924887649e+00
27 34 1.90936159337001432e+00
28 34 1.93606650311924811e+00
29 34 1.95795503736169718e+00
30 34 1.97514038834448513e+00
31 34 1.98776324077949318e+00
32 34 1.99598818047306859e+00
33 34 2.00000000000000000e+00
34 34 2.00000000000000000e+00
