%%MatrixMarket matrix coordinate  real general
34 34 1156
1 1 1.00000000000000000e+00
2 1 1.00000000000000000e+00
3 1 9.97994090236534293e-01
4 1 9.93881620389746590e-01
5 1 9.87570194172242566e-01
6 1 9.78977518680848702e-01
7 1 9.68033251559624164e-01
8 1 9.54680796685007271e-01
9 1 9.38878994624438246e-01
10 1 9.20603651537845513e-01
11 1 8.99848849919983595e-01
12 1 8.76627986955611171e-01
13 1 8.50974491469989602e-01
14 1 8.22942178512991451e-01
15 1 7.92605211317161995e-01
16 1 7.60057653303947478e-01
17 1 7.25412607362388218e-01
18 1 6.88800955010706706e-01
19 1 6.50369723385751941e-01
20 1 6.10280122365216449e-01
21 1 5.68705306634210039e-01
22 1 5.25827927404512674e-01
23 1 4.81837545213567753e-01
24 1 4.36927978439020037e-01
25 1 3.91294661790150822e-01
26 1 3.45132085261840638e-01
27 1 2.98631377267970344e-01
28 1 2.51978086495205256e-01
29 1 2.05350206136080127e-01
30 1 1.58916472321746716e-01
31 1 1.12834956513251719e-01
32 1 6.72519599884324193e-02
33 1 2.23012079300187738e-02
34 1 6.12323399573676604e-17
1 2 1.01562500000000000e+00
2 2 1.01562500000000000e+00
3 2 1.01358774789648010e+00
4 2 1.00941102070833622e+00
5 2 1.00300097845618374e+00
6 2 9.94274042410236980e-01
7 2 9.83158771115243413e-01
8 2 9.69597684133210569e-01
9 2 9.53548978915445100e-01
10 2 9.34988083593124464e-01
11 2 9.13908988199983452e-01
12 2 8.90325299251792712e-01
13 2 8.64270967899208320e-01
14 2 8.35800650052257010e-01
15 2 8.04989667743992610e-01
16 2 7.71933554136821520e-01
17 2 7.36747179352425507e-01
18 2 6.99563469932748982e-01
19 2 6.60531750313654187e-01
20 2 6.19815749277172978e-01
21 2 5.77591327050369641e-01
22 2 5.34043988770208089e-01
23 2 4.89366256857529769e-01
24 2 4.43754978102129771e-01
25 2 3.97408640880621944e-01
26 2 3.50524774094056912e-01
27 2 3.03297492537782376e-01
28 2 2.55915244096692807e-01
29 2 2.08558803106956403e-01
30 2 1.61399542201773993e-01
31 2 1.14598002708771282e-01
32 2 6.83027718632516767e-02
33 2 2.26496643039253154e-02
34 2 6.21890952692015410e-17
1 3 1.04687500000000022e+00
2 3 1.04687500000000000e+00
3 3 1.04477506321637192e+00
4 3 1.04046982134551591e+00
5 3 1.03386254702406633e+00
6 3 1.02486708986901354e+00
7 3 1.01340981022648169e+00
8 3 9.99431459029617053e-01
9 3 9.82888947497458809e-01
10 3 9.63756947703682143e-01
11 3 9.42029264759983054e-01
12 3 9.17719923844155683e-01
13 3 8.90863920757645422e-01
14 3 8.61517593130787795e-01
15 3 8.29758580597653728e-01
16 3 7.95685355802569827e-01
17 3 7.59416323332500087e-01
18 3 7.21088499776833647e-01
19 3 6.80855804169458900e-01
20 3 6.38887003101086037e-01
21 3 5.95363367882688621e-01
22 3 5.50476111501599363e-01
23 3 5.04423680145453690e-01
24 3 4.57408977428349128e-01
25 3 4.09636599061564188e-01
26 3 3.61310151758489462e-01
27 3 3.12629723077406496e-01
28 3 2.63789559299668019e-01
29 3 2.14975997048708900e-01
30 3 1.66365681961828576e-01
31 3 1.18124095099810408e-01
32 3 7.04043956128902054e-02
33 3 2.33465770517384090e-02
34 3 6.41026058928693024e-17
1 4 1.07812500000000022e+00
2 4 1.07812499999999956e+00
3 4 1.07596237853626375e+00
4 4 1.07152862198269561e+00
5 4 1.06472411559194891e+00
6 4 1.05546013732779009e+00
7 4 1.04366084933771996e+00
8 4 1.02926523392602376e+00
9 4 1.01222891607947241e+00
10 4 9.92525811814239933e-01
11 4 9.70149541319982656e-01
12 4 9.45114548436518542e-01
13 4 9.17456873616082746e-01
14 4 8.87234536209319025e-01
15 4 8.54527493451315068e-01
16 4 8.19437157468318245e-01
17 4 7.82085467312574889e-01
18 4 7.42613529620918089e-01
19 4 7.01179858025263725e-01
20 4 6.57958256924999096e-01
21 4 6.13135408715007935e-01
22 4 5.66908234232990305e-01
23 4 5.19481103433377722e-01
24 4 4.71062976754568485e-01
25 4 4.21864557242506322e-01
26 4 3.72095529422922011e-01
27 4 3.21961953617030505e-01
28 4 2.71663874502643121e-01
29 4 2.21393190990461425e-01
30 4 1.71331821721883104e-01
31 4 1.21650187490849507e-01
32 4 7.25060193625287203e-02
33 4 2.40434897995514957e-02
34 4 6.60161165165370391e-17
1 5 1.10937500000000022e+00
2 5 1.10937499999999956e+00
3 5 1.10714969385615536e+00
4 5 1.10258742261987530e+00
5 5 1.09558568415983149e+00
6 5 1.08605318478656643e+00
7 5 1.07391188844895824e+00
8 5 1.05909900882243013e+00
9 5 1.04156888466148612e+00
10 5 1.02129467592479761e+00
11 5 9.98269817879982257e-01
12 5 9.72509173028881513e-01
13 5 9.44049826474519960e-01
14 5 9.12951479287850032e-01
15 5 8.79296406304976297e-01
16 5 8.43188959134066551e-01
17 5 8.04754611292649469e-01
18 5 7.64138559465002531e-01
19 5 7.21503911881068327e-01
20 5 6.77029510748912045e-01
21 5 6.30907449547327026e-01
22 5 5.83340356964381357e-01
23 5 5.34538526721301643e-01
24 5 4.84716976080787898e-01
25 5 4.34092515423448455e-01
26 5 3.82880907087354561e-01
27 5 3.31294184156654514e-01
28 5 2.79538189705618279e-01
29 5 2.27810384932213950e-01
30 5 1.76297961481937687e-01
31 5 1.25176279881888619e-01
32 5 7.46076431121672212e-02
33 5 2.47404025473645858e-02
34 5 6.79296271402047758e-17
1 6 1.14062500000000022e+00
2 6 1.14062499999999933e+00
3 6 1.13833700917604719e+00
4 6 1.13364622325705500e+00
5 6 1.12644725272771384e+00
6 6 1.11664623224534298e+00
7 6 1.10416292756019674e+00
8 6 1.08893278371883673e+00
9 6 1.07090885324349983e+00
10 6 1.05006354003535529e+00
11 6 1.02639009443998175e+00
12 6 9.99903797621244483e-01
13 6 9.70642779332957173e-01
14 6 9.38668422366381039e-01
15 6 9.04065319158637526e-01
16 6 8.66940760799814969e-01
17 6 8.27423755272724049e-01
18 6 7.85663589309087196e-01
19 6 7.41827965736873041e-01
20 6 6.96100764572824993e-01
21 6 6.48679490379646118e-01
22 6 5.99772479695772298e-01
23 6 5.49595950009225565e-01
24 6 4.98370975407007366e-01
25 6 4.46320473604390644e-01
26 6 3.93666284751787054e-01
27 6 3.40626414696278579e-01
28 6 2.87412504908593436e-01
29 6 2.34227578873966502e-01
30 6 1.81264101241992298e-01
31 6 1.28702372272927745e-01
32 6 7.67092668618057361e-02
33 6 2.54373152951776725e-02
34 6 6.98431377638725124e-17
1 7 1.17187500000000022e+00
2 7 1.17187499999999933e+00
3 7 1.16952432449593902e+00
4 7 1.16470502389423447e+00
5 7 1.15730882129559642e+00
6 7 1.14723927970411954e+00
7 7 1.13441396667143501e+00
8 7 1.11876655861524310e+00
9 7 1.10024882182551353e+00
10 7 1.07883240414591297e+00
11 7 1.05451037099998124e+00
12 7 1.02729842221360723e+00
13 7 9.97235732191394386e-01
14 7 9.64385365444912046e-01
15 7 9.28834232012298755e-01
16 7 8.90692562465563609e-01
17 7 8.50092899252798628e-01
18 7 8.07188619153171860e-01
19 7 7.62152019592677754e-01
20 7 7.15172018396737941e-01
21 7 6.66451531211965209e-01
22 7 6.16204602427163239e-01
23 7 5.64653373297149486e-01
24 7 5.12024974733226723e-01
25 7 4.58548431785332944e-01
26 7 4.04451662416219548e-01
27 7 3.49958645235902643e-01
28 7 2.95286820111568649e-01
29 7 2.40644772815719027e-01
30 7 1.86230241002046881e-01
31 7 1.32228464663966844e-01
32 7 7.88108906114442509e-02
33 7 2.61342280429907557e-02
34 7 7.17566483875402491e-17
1 8 1.20312500000000022e+00
2 8 1.20312499999999911e+00
3 8 1.20071163981583062e+00
4 8 1.19576382453141394e+00
5 8 1.18817038986347923e+00
6 8 1.17783232716289588e+00
7 8 1.16466500578267351e+00
8 8 1.14860033351164970e+00
9 8 1.12958879040752724e+00
10 8 1.10760126825647065e+00
11 8 1.08263064755998073e+00
12 8 1.05469304680597031e+00
13 8 1.02382868504983149e+00
14 8 9.90102308523442831e-01
15 8 9.53603144865959984e-01
16 8 9.14444364131311804e-01
17 8 8.72762043232873208e-01
18 8 8.28713648997256525e-01
19 8 7.82476073448482579e-01
20 8 7.34243272220651000e-01
21 8 6.84223572044284190e-01
22 8 6.32636725158554181e-01
23 8 5.79710796585073518e-01
24 8 5.25678974059446080e-01
25 8 4.70776389966275133e-01
26 8 4.15237040080652042e-01
27 8 3.59290875775526763e-01
28 8 3.03161135314543861e-01
29 8 2.47061966757471552e-01
30 8 1.91196380762101492e-01
31 8 1.35754557055005970e-01
32 8 8.09125143610827657e-02
33 8 2.68311407908038424e-02
34 8 7.36701590112079858e-17
1 9 1.23437500000000022e+00
2 9 1.23437499999999911e+00
3 9 1.23189895513572245e+00
4 9 1.22682262516859386e+00
5 9 1.21903195843136181e+00
6 9 1.20842537462167243e+00
7 9 1.19491604489391179e+00
8 9 1.17843410840805585e+00
9 9 1.15892875898954095e+00
10 9 1.13637013236702833e+00
11 9 1.11075092411998022e+00
12 9 1.08208767139833317e+00
13 9 1.05042163790826870e+00
14 9 1.01581925160197373e+00
15 9 9.78372057719621435e-01
16 9 9.38196165797060222e-01
17 9 8.95431187212947899e-01
18 9 8.50238678841341078e-01
19 9 8.02800127304287514e-01
20 9 7.53314526044563948e-01
21 9 7.01995612876603281e-01
22 9 6.49068847889945233e-01
23 9 5.94768219872997550e-01
24 9 5.39332973385665437e-01
25 9 4.83004348147217266e-01
26 9 4.26022417745084592e-01
27 9 3.68623106315150884e-01
28 9 3.11035450517518963e-01
29 9 2.53479160699224049e-01
30 9 1.96162520522156075e-01
31 9 1.39280649446045068e-01
32 9 8.30141381107212806e-02
33 9 2.75280535386169291e-02
34 9 7.55836696348757225e-17
1 10 1.26562500000000022e+00
2 10 1.26562499999999933e+00
3 10 1.26308627045561428e+00
4 10 1.25788142580577356e+00
5 10 1.24989352699924439e+00
6 10 1.23901842208044899e+00
7 10 1.22516708400515029e+00
8 10 1.20826788330446244e+00
9 10 1.18826872757155488e+00
10 10 1.16513899647758601e+00
11 10 1.13887120067997971e+00
12 10 1.10948229599069603e+00
13 10 1.07701459076670591e+00
14 10 1.04153619468050462e+00
15 10 1.00314097057328278e+00
16 10 9.61947967462808529e-01
17 10 9.18100331193022368e-01
18 10 8.71763708685425631e-01
19 10 8.23124181160092228e-01
20 10 7.72385779868476896e-01
21 10 7.19767653708922261e-01
22 10 6.65500970621336285e-01
23 10 6.09825643160921471e-01
24 10 5.52986972711884794e-01
25 10 4.95232306328159511e-01
26 10 4.36807795409517141e-01
27 10 3.77955336854774893e-01
28 10 3.18909765720494121e-01
29 10 2.59896354640976601e-01
30 10 2.01128660282210658e-01
31 10 1.42806741837084167e-01
32 10 8.51157618603597815e-02
33 10 2.82249662864300158e-02
34 10 7.74971802585434592e-17
1 11 1.29687500000000000e+00
2 11 1.29687499999999933e+00
3 11 1.29427358577550589e+00
4 11 1.28894022644295325e+00
5 11 1.28075509556712697e+00
6 11 1.26961146953922532e+00
7 11 1.25541812311638834e+00
8 11 1.23810165820086882e+00
9 11 1.21760869615356859e+00
10 11 1.19390786058814369e+00
11 11 1.16699147723997920e+00
12 11 1.13687692058305889e+00
13 11 1.10360754362514291e+00
14 11 1.06725313775903552e+00
15 11 1.02790988342694400e+00
16 11 9.85699769128557057e-01
17 11 9.40769475173096947e-01
18 11 8.93288738529510185e-01
19 11 8.43448235015896941e-01
20 11 7.91457033692389733e-01
21 11 7.37539694541241353e-01
22 11 6.81933093352727226e-01
23 11 6.24883066448845503e-01
24 11 5.66640972038104151e-01
25 11 5.07460264509101755e-01
26 11 4.47593173073949691e-01
27 11 3.87287567394399013e-01
28 11 3.26784080923469278e-01
29 11 2.66313548582729098e-01
30 11 2.06094800042265214e-01
31 11 1.46332834228123293e-01
32 11 8.72173856099982964e-02
33 11 2.89218790342431024e-02
34 11 7.94106908822111836e-17
1 12 1.32812500000000022e+00
2 12 1.32812499999999956e+00
3 12 1.32546090109539749e+00
4 12 1.31999902708013295e+00
5 12 1.31161666413500955e+00
6 12 1.30020451699800188e+00
7 12 1.28566916222762662e+00
8 12 1.26793543309727541e+00
9 12 1.24694866473558252e+00
10 12 1.22267672469870137e+00
11 12 1.19511175379997869e+00
12 12 1.16427154517542175e+00
13 12 1.13020049648358012e+00
14 12 1.09297008083756642e+00
15 12 1.05267879628060546e+00
16 12 1.00945157079430547e+00
17 12 9.63438619153171638e-01
18 12 9.14813768373594849e-01
19 12 8.63772288871701543e-01
20 12 8.10528287516302792e-01
21 12 7.55311735373560444e-01
22 12 6.98365216084118279e-01
23 12 6.39940489736769536e-01
24 12 5.80294971364323509e-01
25 12 5.19688222690043888e-01
26 12 4.58378550738382184e-01
27 12 3.96619797934023077e-01
28 12 3.34658396126444491e-01
29 12 2.72730742524481595e-01
30 12 2.11060939802319797e-01
31 12 1.49858926619162419e-01
32 12 8.93190093596367973e-02
33 12 2.96187917820561926e-02
34 12 8.13242015058789326e-17
1 13 1.35937500000000022e+00
2 13 1.35937499999999956e+00
3 13 1.35664821641528910e+00
4 13 1.35105782771731242e+00
5 13 1.34247823270289235e+00
6 13 1.33079756445677844e+00
7 13 1.31592020133886467e+00
8 13 1.29776920799368201e+00
9 13 1.27628863331759623e+00
10 13 1.25144558880925905e+00
11 13 1.22323203035997818e+00
12 13 1.19166616976778461e+00
13 13 1.15679344934201733e+00
14 13 1.11868702391609753e+00
15 13 1.07744770913426668e+00
16 13 1.03320337246005378e+00
17 13 9.86107763133246218e-01
18 13 9.36338798217679402e-01
19 13 8.84096342727506368e-01
20 13 8.29599541340215851e-01
21 13 7.73083776205879536e-01
22 13 7.14797338815509331e-01
23 13 6.54997913024693457e-01
24 13 5.93948970690542866e-01
25 13 5.31916180870986022e-01
26 13 4.69163928402814678e-01
27 13 4.05952028473647142e-01
28 13 3.42532711329419592e-01
29 13 2.79147936466234148e-01
30 13 2.16027079562374380e-01
31 13 1.53385019010201518e-01
32 13 9.14206331092753122e-02
33 13 3.03157045298692793e-02
34 13 8.32377121295466693e-17
1 14 1.39062500000000022e+00
2 14 1.39062499999999978e+00
3 14 1.38783553173518071e+00
4 14 1.38211662835449212e+00
5 14 1.37333980127077471e+00
6 14 1.36139061191555499e+00
7 14 1.34617124045010295e+00
8 14 1.32760298289008860e+00
9 14 1.30562860189960994e+00
10 14 1.28021445291981673e+00
11 14 1.25135230691997767e+00
12 14 1.21906079436014747e+00
13 14 1.18338640220045455e+00
14 14 1.14440396699462865e+00
15 14 1.10221662198792814e+00
16 14 1.05695517412580209e+00
17 14 1.00877690711332102e+00
18 14 9.57863828061764067e-01
19 14 9.04420396583311081e-01
20 14 8.48670795164128910e-01
21 14 7.90855817038198627e-01
22 14 7.31229461546900383e-01
23 14 6.70055336312617378e-01
24 14 6.07602970016762223e-01
25 14 5.44144139051928155e-01
26 14 4.79949306067247172e-01
27 14 4.15284259013271206e-01
28 14 3.50407026532394805e-01
29 14 2.85565130407986700e-01
30 14 2.20993219322428963e-01
31 14 1.56911111401240616e-01
32 14 9.35222568589138270e-02
33 14 3.10126172776823660e-02
34 14 8.51512227532144060e-17
1 15 1.42187500000000022e+00
2 15 1.42187499999999956e+00
3 15 1.41902284705507231e+00
4 15 1.41317542899167159e+00
5 15 1.40420136983865729e+00
6 15 1.39198365937433133e+00
7 15 1.37642227956134100e+00
8 15 1.35743675778649497e+00
9 15 1.33496857048162365e+00
10 15 1.30898331703037440e+00
11 15 1.27947258347997717e+00
12 15 1.24645541895251011e+00
13 15 1.20997935505889154e+00
14 15 1.17012091007315977e+00
15 15 1.12698553484158936e+00
16 15 1.08070697579155039e+00
17 15 1.03144605109339560e+00
18 15 9.79388857905848620e-01
19 15 9.24744450439115906e-01
20 15 8.67742048988041859e-01
21 15 8.08627857870517830e-01
22 15 7.47661584278291325e-01
23 15 6.85112759600541410e-01
24 15 6.21256969342981691e-01
25 15 5.56372097232870400e-01
26 15 4.90734683731679666e-01
27 15 4.24616489552895271e-01
28 15 3.58281341735369963e-01
29 15 2.91982324349739197e-01
30 15 2.25959359082483546e-01
31 15 1.60437203792279715e-01
32 15 9.56238806085523418e-02
33 15 3.17095300254954526e-02
34 15 8.70647333768821427e-17
1 16 1.45312500000000022e+00
2 16 1.45312499999999956e+00
3 16 1.45021016237496392e+00
4 16 1.44423422962885128e+00
5 16 1.43506293840653965e+00
6 16 1.42257670683310788e+00
7 16 1.40667331867257928e+00
8 16 1.38727053268290157e+00
9 16 1.36430853906363714e+00
10 16 1.33775218114093208e+00
11 16 1.30759286003997666e+00
12 16 1.27385004354487297e+00
13 16 1.23657230791732875e+00
14 16 1.19583785315169089e+00
15 16 1.15175444769525059e+00
16 16 1.10445877745729870e+00
17 16 1.05411519507347018e+00
18 16 1.00091388774993328e+00
19 16 9.45068504294920730e-01
20 16 8.86813302811954807e-01
21 16 8.26399898702836810e-01
22 16 7.64093707009682377e-01
23 16 7.00170182888465442e-01
24 16 6.34910968669201048e-01
25 16 5.68600055413812644e-01
26 16 5.01520061396112160e-01
27 16 4.33948720092519280e-01
28 16 3.66155656938345120e-01
29 16 2.98399518291491694e-01
30 16 2.30925498842538157e-01
31 16 1.63963296183318813e-01
32 16 9.77255043581908567e-02
33 16 3.24064427733085428e-02
34 16 8.89782440005498917e-17
1 17 1.48437500000000022e+00
2 17 1.48437499999999933e+00
3 17 1.48139747769485552e+00
4 17 1.47529303026603098e+00
5 17 1.46592450697442223e+00
6 17 1.45316975429188422e+00
7 17 1.43692435778381755e+00
8 17 1.41710430757930816e+00
9 17 1.39364850764565085e+00
10 17 1.36652104525148954e+00
11 17 1.33571313659997593e+00
12 17 1.30124466813723583e+00
13 17 1.26316526077576574e+00
14 17 1.22155479623022178e+00
15 17 1.17652336054891182e+00
16 17 1.12821057912304701e+00
17 17 1.07678433905354476e+00
18 17 1.02243891759401784e+00
19 17 9.65392558150725555e-01
20 17 9.05884556635867866e-01
21 17 8.44171939535155902e-01
22 17 7.80525829741073318e-01
23 17 7.15227606176389474e-01
24 17 6.48564967995420405e-01
25 17 5.80828013594754888e-01
26 17 5.12305439060544709e-01
27 17 4.43280950632143345e-01
28 17 3.74029972141320277e-01
29 17 3.04816712233244191e-01
30 17 2.35891638602592740e-01
31 17 1.67489388574357939e-01
32 17 9.98271281078293576e-02
33 17 3.31033555211216329e-02
34 17 9.08917546242176407e-17
1 18 1.51562500000000022e+00
2 18 1.51562499999999933e+00
3 18 1.51258479301474713e+00
4 18 1.50635183090321045e+00
5 18 1.49678607554230503e+00
6 18 1.48376280175066055e+00
7 18 1.46717539689505583e+00
8 18 1.44693808247571476e+00
9 18 1.42298847622766456e+00
10 18 1.39528990936204744e+00
11 18 1.36383341315997542e+00
12 18 1.32863929272959869e+00
13 18 1.28975821363420295e+00
14 18 1.24727173930875290e+00
15 18 1.20129227340257327e+00
16 18 1.15196238078879531e+00
17 18 1.09945348303361934e+00
18 18 1.04396394743810239e+00
19 18 9.85716612006530268e-01
20 18 9.24955810459780814e-01
21 18 8.61943980367474993e-01
22 18 7.96957952472464259e-01
23 18 7.30285029464313507e-01
24 18 6.62218967321639762e-01
25 18 5.93055971775697133e-01
26 18 5.23090816724977259e-01
27 18 4.52613181171767465e-01
28 18 3.81904287344295490e-01
29 18 3.11233906174996688e-01
30 18 2.40857778362647351e-01
31 18 1.71015480965397065e-01
32 18 1.01928751857467872e-01
33 18 3.38002682689347161e-02
34 18 9.28052652478853774e-17
1 19 1.54687500000000044e+00
2 19 1.54687499999999956e+00
3 19 1.54377210833463896e+00
4 19 1.53741063154038993e+00
5 19 1.52764764411018761e+00
6 19 1.51435584920943689e+00
7 19 1.49742643600629410e+00
8 19 1.47677185737212135e+00
9 19 1.45232844480967827e+00
10 19 1.42405877347260512e+00
11 19 1.39195368971997491e+00
12 19 1.35603391732196155e+00
13 19 1.31635116649263995e+00
14 19 1.27298868238728380e+00
15 19 1.22606118625623450e+00
16 19 1.17571418245454362e+00
17 19 1.12212262701369392e+00
18 19 1.06548897728218694e+00
19 19 1.00604066586233487e+00
20 19 9.44027064283693873e-01
21 19 8.79716021199794085e-01
22 19 8.13390075203855201e-01
23 19 7.45342452752237539e-01
24 19 6.75872966647859119e-01
25 19 6.05283929956639266e-01
26 19 5.33876194389409697e-01
27 19 4.61945411711391585e-01
28 19 3.89778602547270647e-01
29 19 3.17651100116749185e-01
30 19 2.45823918122701934e-01
31 19 1.74541573356436192e-01
32 19 1.04030375607106401e-01
33 19 3.44971810167477994e-02
34 19 9.47187758715531264e-17
1 20 1.57812500000000044e+00
2 20 1.57812499999999956e+00
3 20 1.57495942365453057e+00
4 20 1.56846943217756940e+00
5 20 1.55850921267807019e+00
6 20 1.54494889666821344e+00
7 20 1.52767747511753216e+00
8 20 1.50660563226852773e+00
9 20 1.48166841339169220e+00
10 20 1.45282763758316280e+00
11 20 1.42007396627997418e+00
12 20 1.38342854191432441e+00
13 20 1.34294411935107694e+00
14 20 1.29870562546581469e+00
15 20 1.25083009910989595e+00
16 20 1.19946598412029215e+00
17 20 1.14479177099376850e+00
18 20 1.08701400712627150e+00
19 20 1.02636471971813958e+00
20 20 9.63098318107606821e-01
21 20 8.97488062032113065e-01
22 20 8.29822197935246364e-01
23 20 7.60399876040161571e-01
24 20 6.89526965974078476e-01
25 20 6.17511888137581511e-01
26 20 5.44661572053842247e-01
27 20 4.71277642251015705e-01
28 20 3.97652917750245805e-01
29 20 3.24068294058501682e-01
30 20 2.50790057882756490e-01
31 20 1.78067665747475290e-01
32 20 1.06131999356744916e-01
33 20 3.51940937645608826e-02
34 20 9.66322864952208631e-17
1 21 1.60937500000000044e+00
2 21 1.60937499999999956e+00
3 21 1.60614673897442239e+00
4 21 1.59952823281474887e+00
5 21 1.58937078124595255e+00
6 21 1.57554194412699000e+00
7 21 1.55792851422877043e+00
8 21 1.53643940716493410e+00
9 21 1.51100838197370591e+00
10 21 1.48159650169372048e+00
11 21 1.44819424283997367e+00
12 21 1.41082316650668749e+00
13 21 1.36953707220951415e+00
14 21 1.32442256854434581e+00
15 21 1.27559901196355741e+00
16 21 1.22321778578604046e+00
17 21 1.16746091497384308e+00
18 21 1.10853903697035605e+00
19 21 1.04668877357394430e+00
20 21 9.82169571931519658e-01
21 21 9.15260102864432046e-01
22 21 8.46254320666637305e-01
23 21 7.75457299328085492e-01
24 21 7.03180965300297944e-01
25 21 6.29739846318523755e-01
26 21 5.55446949718274796e-01
27 21 4.80609872790639769e-01
28 21 4.05527232953221017e-01
29 21 3.30485488000254179e-01
30 21 2.55756197642811045e-01
31 21 1.81593758138514388e-01
32 21 1.08233623106383445e-01
33 21 3.58910065123739727e-02
34 21 9.85457971188885998e-17
1 22 1.64062500000000044e+00
2 22 1.64062499999999956e+00
3 22 1.63733405429431422e+00
4 22 1.63058703345192857e+00
5 22 1.62023234981383490e+00
6 22 1.60613499158576634e+00
7 22 1.58817955334000871e+00
8 22 1.56627318206134047e+00
9 22 1.54034835055571961e+00
10 22 1.51036536580427794e+00
11 22 1.47631451939997316e+00
12 22 1.43821779109905035e+00
13 22 1.39613002506795136e+00
14 22 1.35013951162287693e+00
15 22 1.30036792481721863e+00
16 22 1.24696958745178876e+00
17 22 1.19013005895391766e+00
18 22 1.13006406681444038e+00
19 22 1.06701282742974901e+00
20 22 1.00124082575543283e+00
21 22 9.33032143696751137e-01
22 22 8.62686443398028358e-01
23 22 7.90514722616009524e-01
24 22 7.16834964626517301e-01
25 22 6.41967804499465999e-01
26 22 5.66232327382707346e-01
27 22 4.89942103330263889e-01
28 22 4.13401548156196175e-01
29 22 3.36902681942006677e-01
30 22 2.60722337402865656e-01
31 22 1.85119850529553515e-01
32 22 1.10335246856021960e-01
33 22 3.65879192601870559e-02
34 22 1.00459307742556336e-16
1 23 1.67187500000000044e+00
2 23 1.67187499999999933e+00
3 23 1.66852136961420561e+00
4 23 1.66164583408910826e+00
5 23 1.65109391838171771e+00
6 23 1.63672803904454311e+00
7 23 1.61843059245124676e+00
8 23 1.59610695695774685e+00
9 23 1.56968831913773332e+00
10 23 1.53913422991483562e+00
11 23 1.50443479595997243e+00
12 23 1.46561241569141298e+00
13 23 1.42272297792638858e+00
14 23 1.37585645470140783e+00
15 23 1.32513683767088009e+00
16 23 1.27072138911753707e+00
17 23 1.21279920293399224e+00
18 23 1.15158909665852494e+00
19 23 1.08733688128555372e+00
20 23 1.02031207957934589e+00
21 23 9.50804184529070118e-01
22 23 8.79118566129419410e-01
23 23 8.05572145903933445e-01
24 23 7.30488963952736658e-01
25 23 6.54195762680408244e-01
26 23 5.77017705047139895e-01
27 23 4.99274333869887954e-01
28 23 4.21275863359171276e-01
29 23 3.43319875883759118e-01
30 23 2.65688477162920211e-01
31 23 1.88645942920592641e-01
32 23 1.12436870605660461e-01
33 23 3.72848320080001391e-02
34 23 1.02372818366224085e-16
1 24 1.70312500000000044e+00
2 24 1.70312499999999933e+00
3 24 1.69970868493409744e+00
4 24 1.69270463472628796e+00
5 24 1.68195548694960029e+00
6 24 1.66732108650331967e+00
7 24 1.64868163156248482e+00
8 24 1.62594073185415344e+00
9 24 1.59902828771974703e+00
10 24 1.56790309402539307e+00
11 24 1.53255507251997170e+00
12 24 1.49300704028377562e+00
13 24 1.44931593078482557e+00
14 24 1.40157339777993872e+00
15 24 1.34990575052454131e+00
16 24 1.29447319078328538e+00
17 24 1.23546834691406704e+00
18 24 1.17311412650260949e+00
19 24 1.10766093514135844e+00
20 24 1.03938333340325895e+00
21 24 9.68576225361389098e-01
22 24 8.95550688860810462e-01
23 24 8.20629569191857478e-01
24 24 7.44142963278956127e-01
25 24 6.66423720861350377e-01
26 24 5.87803082711572333e-01
27 24 5.08606564409512019e-01
28 24 4.29150178562146489e-01
29 24 3.49737069825511560e-01
30 24 2.70654616922974822e-01
31 24 1.92172035311631739e-01
32 24 1.14538494355298962e-01
33 24 3.79817447558132223e-02
34 24 1.04286328989891822e-16
1 25 1.73437500000000044e+00
2 25 1.73437499999999933e+00
3 25 1.73089600025398904e+00
4 25 1.72376343536346743e+00
5 25 1.71281705551748287e+00
6 25 1.69791413396209623e+00
7 25 1.67893267067372309e+00
8 25 1.65577450675055982e+00
9 25 1.62836825630176052e+00
10 25 1.59667195813595075e+00
11 25 1.56067534907997119e+00
12 25 1.52040166487613870e+00
13 25 1.47590888364326278e+00
14 25 1.42729034085846984e+00
15 25 1.37467466337820254e+00
16 25 1.31822499244903368e+00
17 25 1.25813749089414162e+00
18 25 1.19463915634669426e+00
19 25 1.12798498899716315e+00
20 25 1.05845458722717201e+00
21 25 9.86348266193708190e-01
22 25 9.11982811592201625e-01
23 25 8.35686992479781510e-01
24 25 7.57796962605175484e-01
25 25 6.78651679042292622e-01
26 25 5.98588460376004883e-01
27 25 5.17938794949136083e-01
28 25 4.37024493765121702e-01
29 25 3.56154263767264001e-01
30 25 2.75620756683029378e-01
31 25 1.95698127702670865e-01
32 25 1.16640118104937476e-01
33 25 3.86786575036263125e-02
34 25 1.06199839613559559e-16
1 26 1.76562500000000022e+00
2 26 1.76562499999999956e+00
3 26 1.76208331557388087e+00
4 26 1.75482223600064691e+00
5 26 1.74367862408536545e+00
6 26 1.72850718142087278e+00
7 26 1.70918370978496137e+00
8 26 1.68560828164696641e+00
9 26 1.65770822488377423e+00
10 26 1.62544082224650843e+00
11 26 1.58879562563997068e+00
12 26 1.54779628946850178e+00
13 26 1.50250183650169977e+00
14 26 1.45300728393700074e+00
15 26 1.39944357623186399e+00
16 26 1.34197679411478199e+00
17 26 1.28080663487421642e+00
18 26 1.21616418619077904e+00
19 26 1.14830904285296787e+00
20 26 1.07752584105108506e+00
21 26 1.00412030702602717e+00
22 26 9.28414934323592789e-01
23 26 8.50744415767705542e-01
24 26 7.71450961931394952e-01
25 26 6.90879637223234866e-01
26 26 6.09373838040437432e-01
27 26 5.27271025488760148e-01
28 26 4.44898808968096915e-01
29 26 3.62571457709016498e-01
30 26 2.80586896443083988e-01
31 26 1.99224220093709992e-01
32 26 1.18741741854575991e-01
33 26 3.93755702514393957e-02
34 26 1.08113350237227296e-16
1 27 1.79687500000000000e+00
2 27 1.79687499999999956e+00
3 27 1.79327063089377270e+00
4 27 1.78588103663782638e+00
5 27 1.77454019265324825e+00
6 27 1.75910022887964912e+00
7 27 1.73943474889619942e+00
8 27 1.71544205654337301e+00
9 27 1.68704819346578772e+00
10 27 1.65420968635706611e+00
11 27 1.61691590219997017e+00
12 27 1.57519091406086464e+00
13 27 1.52909478936013721e+00
14 27 1.47872422701553186e+00
15 27 1.42421248908552500e+00
16 27 1.36572859578053052e+00
17 27 1.30347577885429078e+00
18 27 1.23768921603486337e+00
19 27 1.16863309670877258e+00
20 27 1.09659709487499812e+00
21 27 1.02189234785834637e+00
22 27 9.44847057054983952e-01
23 27 8.65801839055629574e-01
24 27 7.85104961257614198e-01
25 27 7.03107595404176999e-01
26 27 6.20159215704870093e-01
27 27 5.36603256028384212e-01
28 27 4.52773124171072017e-01
29 27 3.68988651650768995e-01
30 27 2.85553036203138599e-01
31 27 2.02750312484749146e-01
32 27 1.20843365604214492e-01
33 27 4.00724829992524859e-02
34 27 1.10026860860895032e-16
1 28 1.82812500000000000e+00
2 28 1.82812499999999956e+00
3 28 1.82445794621366453e+00
4 28 1.81693983727500585e+00
5 28 1.80540176122113105e+00
6 28 1.78969327633842590e+00
7 28 1.76968578800743770e+00
8 28 1.74527583143977960e+00
9 28 1.71638816204780120e+00
10 28 1.68297855046762379e+00
11 28 1.64503617875996966e+00
12 28 1.60258553865322706e+00
13 28 1.55568774221857464e+00
14 28 1.50444117009406253e+00
15 28 1.44898140193918623e+00
16 28 1.38948039744627883e+00
17 28 1.32614492283436558e+00
18 28 1.25921424587894792e+00
19 28 1.18895715056457751e+00
20 28 1.11566834869891118e+00
21 28 1.03966438869066535e+00
22 28 9.61279179786374893e-01
23 28 8.80859262343553606e-01
24 28 7.98758960583833555e-01
25 28 7.15335553585119244e-01
26 28 6.30944593369302642e-01
27 28 5.45935486568008277e-01
28 28 4.60647439374047174e-01
29 28 3.75405845592521492e-01
30 28 2.90519175963193210e-01
31 28 2.06276404875788272e-01
32 28 1.22944989353853021e-01
33 28 4.07693957470655760e-02
34 28 1.11940371484562769e-16
1 29 1.85937500000000000e+00
2 29 1.85937499999999978e+00
3 29 1.85564526153355613e+00
4 29 1.84799863791218533e+00
5 29 1.83626332978901341e+00
6 29 1.82028632379720268e+00
7 29 1.79993682711867620e+00
8 29 1.77510960633618597e+00
9 29 1.74572813062981469e+00
10 29 1.71174741457818147e+00
11 29 1.67315645531996915e+00
12 29 1.62998016324558992e+00
13 29 1.58228069507701186e+00
14 29 1.53015811317259365e+00
15 29 1.47375031479284746e+00
16 29 1.41323219911202713e+00
17 29 1.34881406681444016e+00
18 29 1.28073927572303248e+00
19 29 1.20928120442038223e+00
20 29 1.13473960252282424e+00
21 29 1.05743642952298456e+00
22 29 9.77711302517765946e-01
23 29 8.95916685631477638e-01
24 29 8.12412959910052912e-01
25 29 7.27563511766061488e-01
26 29 6.41729971033735191e-01
27 29 5.55267717107632341e-01
28 29 4.68521754577022331e-01
29 29 3.81823039534273934e-01
30 29 2.95485315723247766e-01
31 29 2.09802497266827398e-01
32 29 1.25046613103491522e-01
33 29 4.14663084948786662e-02
34 29 1.13853882108230506e-16
1 30 1.89062500000000000e+00
2 30 1.89062499999999978e+00
3 30 1.88683257685344796e+00
4 30 1.87905743854936502e+00
5 30 1.86712489835689599e+00
6 30 1.85087937125597946e+00
7 30 1.83018786622991447e+00
8 30 1.80494338123259235e+00
9 30 1.77506809921182840e+00
10 30 1.74051627868873915e+00
11 30 1.70127673187996864e+00
12 30 1.65737478783795256e+00
13 30 1.60887364793544907e+00
14 30 1.55587505625112454e+00
15 30 1.49851922764650869e+00
16 30 1.43698400077777544e+00
17 30 1.37148321079451518e+00
18 30 1.30226430556711725e+00
19 30 1.22960525827618716e+00
20 30 1.15381085634673730e+00
21 30 1.07520847035530354e+00
22 30 9.94143425249156887e-01
23 30 9.10974108919401560e-01
24 30 8.26066959236272380e-01
25 30 7.39791469947003733e-01
26 30 6.52515348698167630e-01
27 30 5.64599947647256406e-01
28 30 4.76396069779997544e-01
29 30 3.88240233476026431e-01
30 30 3.00451455483302377e-01
31 30 2.13328589657866524e-01
32 30 1.27148236853130037e-01
33 30 4.21632212426917494e-02
34 30 1.15767392731898242e-16
1 31 1.92187500000000000e+00
2 31 1.92187500000000000e+00
3 31 1.91801989217333935e+00
4 31 1.91011623918654450e+00
5 31 1.89798646692477879e+00
6 31 1.88147241871475601e+00
7 31 1.86043890534115275e+00
8 31 1.83477715612899872e+00
9 31 1.80440806779384211e+00
10 31 1.76928514279929683e+00
11 31 1.72939700843996813e+00
12 31 1.68476941243031519e+00
13 31 1.63546660079388628e+00
14 31 1.58159199932965544e+00
15 31 1.52328814050017036e+00
16 31 1.46073580244352397e+00
17 31 1.39415235477458976e+00
18 31 1.32378933541120181e+00
19 31 1.24992931213199188e+00
20 31 1.17288211017065036e+00
21 31 1.09298051118762252e+00
22 31 1.01057554798054783e+00
23 31 9.26031532207325592e-01
24 31 8.39720958562491848e-01
25 31 7.52019428127945977e-01
26 31 6.63300726362600179e-01
27 31 5.73932178186880582e-01
28 31 4.84270384982972757e-01
29 31 3.94657427417778983e-01
30 31 3.05417595243356987e-01
31 31 2.16854682048905623e-01
32 31 1.29249860602768551e-01
33 31 4.28601339905048326e-02
34 31 1.17680903355565979e-16
1 32 1.95312500000000000e+00
2 32 1.95312499999999978e+00
3 32 1.94920720749323095e+00
4 32 1.94117503982372397e+00
5 32 1.92884803549266137e+00
6 32 1.91206546617353257e+00
7 32 1.89068994445239102e+00
8 32 1.86461093102540509e+00
9 32 1.83374803637585582e+00
10 32 1.79805400690985451e+00
11 32 1.75751728499996784e+00
12 32 1.71216403702267828e+00
13 32 1.66205955365232327e+00
14 32 1.60730894240818656e+00
15 32 1.54805705335383181e+00
16 32 1.48448760410927227e+00
17 32 1.41682149875466434e+00
18 32 1.34531436525528636e+00
19 32 1.27025336598779681e+00
20 32 1.19195336399456342e+00
21 32 1.11075255201994150e+00
22 32 1.02700767071193888e+00
23 32 9.41088955495249624e-01
24 32 8.53374957888711205e-01
25 32 7.64247386308888221e-01
26 32 6.74086104027032618e-01
27 32 5.83264408726504646e-01
28 32 4.92144700185947859e-01
29 32 4.01074621359531480e-01
30 32 3.10383735003411543e-01
31 32 2.20380774439944749e-01
32 32 1.31351484352407094e-01
33 32 4.35570467383179227e-02
34 32 1.19594413979233716e-16
1 33 1.98437500000000000e+00
2 33 1.98437500000000000e+00
3 33 1.98039452281312256e+00
4 33 1.97223384046090344e+00
5 33 1.95970960406054395e+00
6 33 1.94265851363230913e+00
7 33 1.92094098356362930e+00
8 33 1.89444470592181125e+00
9 33 1.86308800495786953e+00
10 33 1.82682287102041219e+00
11 33 1.78563756155996733e+00
12 33 1.73955866161504091e+00
13 33 1.68865250651076049e+00
14 33 1.63302588548671745e+00
15 33 1.57282596620749304e+00
16 33 1.50823940577502080e+00
17 33 1.43949064273473915e+00
18 33 1.36683939509937113e+00
19 33 1.29057741984360153e+00
20 33 1.21102461781847626e+00
21 33 1.12852459285226048e+00
22 33 1.04343979344332993e+00
23 33 9.56146378783173656e-01
24 33 8.67028957214930451e-01
25 33 7.76475344489830466e-01
26 33 6.84871481691465056e-01
27 33 5.92596639266128711e-01
28 33 5.00019015388923016e-01
29 33 4.07491815301283977e-01
30 33 3.15349874763466098e-01
31 33 2.23906866830983875e-01
32 33 1.33453108102045581e-01
33 33 4.42539594861310059e-02
34 33 1.21507924602901452e-16
1 34 2.00000000000000000e+00
2 34 2.00000000000000000e+00
3 34 1.99598818047306859e+00
4 34 1.98776324077949318e+00
5 34 1.97514038834448513e+00
6 34 1.95795503736169740e+00
7 34 1.93606650311924833e+00
8 34 1.90936159337001454e+00
9 34 1.87775798924887649e+00
10 34 1.84120730307569103e+00
11 34 1.79969769983996719e+00
12 34 1.75325597391122234e+00
13 34 1.70194898293997920e+00
14 34 1.64588435702598290e+00
15 34 1.58521042263432399e+00
16 34 1.52011530660789496e+00
17 34 1.45082521472477644e+00
18 34 1.37760191002141341e+00
19 34 1.30073944677150388e+00
20 34 1.22056024473043290e+00
21 34 1.13741061326842008e+00
22 34 1.05165585480902535e+00
23 34 9.63675090427135506e-01
24 34 8.73855956878040074e-01
25 34 7.82589323580301643e-01
26 34 6.90264170523681275e-01
27 34 5.97262754535940688e-01
28 34 5.03956172990410511e-01
29 34 4.10700412272160253e-01
30 34 3.17832944643493431e-01
31 34 2.25669913026503438e-01
32 34 1.34503919976864839e-01
33 34 4.46024158600375475e-02
34 34 1.22464679914735321e-16
