%%MatrixMarket matrix coordinate  real general
1 37 37
1 1 0.00000000000000000e+00
1 2 0.00000000000000000e+00
1 3 0.00000000000000000e+00
1 4 3.12500000000000000e-02
1 5 6.25000000000000000e-02
1 6 9.37500000000000000e-02
1 7 1.25000000000000000e-01
1 8 1.56250000000000000e-01
1 9 1.87500000000000000e-01
1 10 2.18750000000000000e-01
1 11 2.50000000000000000e-01
1 12 2.81250000000000000e-01
1 13 3.12500000000000000e-01
1 14 3.43750000000000000e-01
1 15 3.75000000000000000e-01
1 16 4.06250000000000000e-01
1 17 4.37500000000000000e-01
1 18 4.68750000000000000e-01
1 19 5.00000000000000000e-01
1 20 5.31250000000000000e-01
1 21 5.62500000000000000e-01
1 22 5.93750000000000000e-01
1 23 6.25000000000000000e-01
1 24 6.56250000000000000e-01
1 25 6.87500000000000000e-01
1 26 7.18750000000000000e-01
1 27 7.50000000000000000e-01
1 28 7.81250000000000000e-01
1 29 8.12500000000000000e-01
1 30 8.43750000000000000e-01
1 31 8.75000000000000000e-01
1 32 9.06250000000000000e-01
1 33 9.37500000000000000e-01
1 34 9.68750000000000000e-01
1 35 1.00000000000000000e+00
1 36 1.00000000000000000e+00
1 37 1.00000000000000000e+00
