%%MatrixMarket matrix coordinate  real general
34 34 1156
1 1 1.00000000000000000e+00
2 1 9.90847086912079678e-01
3 1 9.73685374872229059e-01
4 1 9.57667776968368356e-01
5 1 9.42794293200497679e-01
6 1 9.29064923568617140e-01
7 1 9.16479668072726517e-01
8 1 9.05038526712826030e-01
9 1 8.94741499488915681e-01
10 1 8.85588586400995359e-01
11 1 8.77579787449064952e-01
12 1 8.70715102633124793e-01
13 1 8.64994531953174439e-01
14 1 8.60418075409214334e-01
15 1 8.56985733001244254e-01
16 1 8.54697504729264090e-01
17 1 8.53553390593274064e-01
18 1 8.53553390593274064e-01
19 1 8.54697504729264201e-01
20 1 8.56985733001244254e-01
21 1 8.60418075409214334e-01
22 1 8.64994531953174550e-01
23 1 8.70715102633124793e-01
24 1 8.77579787449065063e-01
25 1 8.85588586400995359e-01
26 1 8.94741499488915792e-01
27 1 9.05038526712826141e-01
28 1 9.16479668072726628e-01
29 1 9.29064923568617140e-01
30 1 9.42794293200497679e-01
31 1 9.57667776968368245e-01
32 1 9.73685374872228837e-01
33 1 9.90847086912079567e-01
34 1 1.00000000000000000e+00
1 2 1.00000000000000000e+00
2 2 9.90847086912079789e-01
3 2 9.73685374872229170e-01
4 2 9.57667776968368467e-01
5 2 9.42794293200497791e-01
6 2 9.29064923568617251e-01
7 2 9.16479668072726517e-01
8 2 9.05038526712826030e-01
9 2 8.94741499488915792e-01
10 2 8.85588586400995359e-01
11 2 8.77579787449064952e-01
12 2 8.70715102633124904e-01
13 2 8.64994531953174439e-01
14 2 8.60418075409214334e-01
15 2 8.56985733001244254e-01
16 2 8.54697504729264201e-01
17 2 8.53553390593274175e-01
18 2 8.53553390593274175e-01
19 2 8.54697504729264201e-01
20 2 8.56985733001244254e-01
21 2 8.60418075409214334e-01
22 2 8.64994531953174661e-01
23 2 8.70715102633124904e-01
24 2 8.77579787449065174e-01
25 2 8.85588586400995359e-01
26 2 8.94741499488915792e-01
27 2 9.05038526712826252e-01
28 2 9.16479668072726739e-01
29 2 9.29064923568617251e-01
30 2 9.42794293200497791e-01
31 2 9.57667776968368245e-01
32 2 9.73685374872228948e-01
33 2 9.90847086912079678e-01
34 2 1.00000000000000000e+00
1 3 1.00000000000000000e+00
2 3 9.90847086912080011e-01
3 3 9.73685374872229170e-01
4 3 9.57667776968368578e-01
5 3 9.42794293200497791e-01
6 3 9.29064923568617251e-01
7 3 9.16479668072726517e-01
8 3 9.05038526712826030e-01
9 3 8.94741499488915792e-01
10 3 8.85588586400995359e-01
11 3 8.77579787449064952e-01
12 3 8.70715102633125015e-01
13 3 8.64994531953174439e-01
14 3 8.60418075409214334e-01
15 3 8.56985733001244254e-01
16 3 8.54697504729264201e-01
17 3 8.53553390593274175e-01
18 3 8.53553390593274175e-01
19 3 8.54697504729264201e-01
20 3 8.56985733001244254e-01
21 3 8.60418075409214334e-01
22 3 8.64994531953174661e-01
23 3 8.70715102633125015e-01
24 3 8.77579787449065174e-01
25 3 8.85588586400995359e-01
26 3 8.94741499488915792e-01
27 3 9.05038526712826252e-01
28 3 9.16479668072726739e-01
29 3 9.29064923568617251e-01
30 3 9.42794293200497791e-01
31 3 9.57667776968368134e-01
32 3 9.73685374872228948e-01
33 3 9.90847086912079789e-01
34 3 1.00000000000000000e+00
1 4 1.00000000000000000e+00
2 4 9.90847086912080011e-01
3 4 9.73685374872229170e-01
4 4 9.57667776968368578e-01
5 4 9.42794293200497902e-01
6 4 9.29064923568617251e-01
7 4 9.16479668072726517e-01
8 4 9.05038526712826030e-01
9 4 8.94741499488915792e-01
10 4 8.85588586400995359e-01
11 4 8.77579787449064952e-01
12 4 8.70715102633125015e-01
13 4 8.64994531953174439e-01
14 4 8.60418075409214334e-01
15 4 8.56985733001244254e-01
16 4 8.54697504729264201e-01
17 4 8.53553390593274175e-01
18 4 8.53553390593274175e-01
19 4 8.54697504729264201e-01
20 4 8.56985733001244254e-01
21 4 8.60418075409214334e-01
22 4 8.64994531953174661e-01
23 4 8.70715102633125015e-01
24 4 8.77579787449065174e-01
25 4 8.85588586400995359e-01
26 4 8.94741499488915792e-01
27 4 9.05038526712826252e-01
28 4 9.16479668072726850e-01
29 4 9.29064923568617251e-01
30 4 9.42794293200497902e-01
31 4 9.57667776968368245e-01
32 4 9.73685374872228948e-01
33 4 9.90847086912079789e-01
34 4 1.00000000000000000e+00
1 5 1.00000000000000000e+00
2 5 9.90847086912080011e-01
3 5 9.73685374872229170e-01
4 5 9.57667776968368578e-01
5 5 9.42794293200497902e-01
6 5 9.29064923568617251e-01
7 5 9.16479668072726628e-01
8 5 9.05038526712826141e-01
9 5 8.94741499488915792e-01
10 5 8.85588586400995470e-01
11 5 8.77579787449064952e-01
12 5 8.70715102633125015e-01
13 5 8.64994531953174439e-01
14 5 8.60418075409214334e-01
15 5 8.56985733001244365e-01
16 5 8.54697504729264201e-01
17 5 8.53553390593274175e-01
18 5 8.53553390593274175e-01
19 5 8.54697504729264312e-01
20 5 8.56985733001244365e-01
21 5 8.60418075409214334e-01
22 5 8.64994531953174661e-01
23 5 8.70715102633125015e-01
24 5 8.77579787449065174e-01
25 5 8.85588586400995470e-01
26 5 8.94741499488915792e-01
27 5 9.05038526712826363e-01
28 5 9.16479668072726961e-01
29 5 9.29064923568617251e-01
30 5 9.42794293200497902e-01
31 5 9.57667776968368245e-01
32 5 9.73685374872228948e-01
33 5 9.90847086912079789e-01
34 5 1.00000000000000000e+00
1 6 1.00000000000000000e+00
2 6 9.90847086912080011e-01
3 6 9.73685374872229281e-01
4 6 9.57667776968368578e-01
5 6 9.42794293200497902e-01
6 6 9.29064923568617251e-01
7 6 9.16479668072726628e-01
8 6 9.05038526712826252e-01
9 6 8.94741499488915792e-01
10 6 8.85588586400995470e-01
11 6 8.77579787449065063e-01
12 6 8.70715102633125015e-01
13 6 8.64994531953174439e-01
14 6 8.60418075409214334e-01
15 6 8.56985733001244476e-01
16 6 8.54697504729264090e-01
17 6 8.53553390593274175e-01
18 6 8.53553390593274175e-01
19 6 8.54697504729264312e-01
20 6 8.56985733001244476e-01
21 6 8.60418075409214334e-01
22 6 8.64994531953174661e-01
23 6 8.70715102633125015e-01
24 6 8.77579787449065174e-01
25 6 8.85588586400995470e-01
26 6 8.94741499488915792e-01
27 6 9.05038526712826363e-01
28 6 9.16479668072726961e-01
29 6 9.29064923568617251e-01
30 6 9.42794293200497902e-01
31 6 9.57667776968368245e-01
32 6 9.73685374872228948e-01
33 6 9.90847086912079789e-01
34 6 1.00000000000000000e+00
1 7 1.00000000000000000e+00
2 7 9.90847086912080011e-01
3 7 9.73685374872229170e-01
4 7 9.57667776968368578e-01
5 7 9.42794293200497791e-01
6 7 9.29064923568617251e-01
7 7 9.16479668072726517e-01
8 7 9.05038526712826252e-01
9 7 8.94741499488915792e-01
10 7 8.85588586400995359e-01
11 7 8.77579787449065063e-01
12 7 8.70715102633125015e-01
13 7 8.64994531953174439e-01
14 7 8.60418075409214334e-01
15 7 8.56985733001244476e-01
16 7 8.54697504729263979e-01
17 7 8.53553390593274175e-01
18 7 8.53553390593274175e-01
19 7 8.54697504729264312e-01
20 7 8.56985733001244476e-01
21 7 8.60418075409214334e-01
22 7 8.64994531953174661e-01
23 7 8.70715102633125015e-01
24 7 8.77579787449065174e-01
25 7 8.85588586400995359e-01
26 7 8.94741499488915792e-01
27 7 9.05038526712826252e-01
28 7 9.16479668072726850e-01
29 7 9.29064923568617251e-01
30 7 9.42794293200497791e-01
31 7 9.57667776968368134e-01
32 7 9.73685374872228948e-01
33 7 9.90847086912079789e-01
34 7 1.00000000000000000e+00
1 8 1.00000000000000000e+00
2 8 9.90847086912080011e-01
3 8 9.73685374872229170e-01
4 8 9.57667776968368578e-01
5 8 9.42794293200497679e-01
6 8 9.29064923568617251e-01
7 8 9.16479668072726406e-01
8 8 9.05038526712826252e-01
9 8 8.94741499488915792e-01
10 8 8.85588586400995359e-01
11 8 8.77579787449065174e-01
12 8 8.70715102633124904e-01
13 8 8.64994531953174439e-01
14 8 8.60418075409214334e-01
15 8 8.56985733001244476e-01
16 8 8.54697504729263979e-01
17 8 8.53553390593274175e-01
18 8 8.53553390593274175e-01
19 8 8.54697504729264312e-01
20 8 8.56985733001244476e-01
21 8 8.60418075409214334e-01
22 8 8.64994531953174661e-01
23 8 8.70715102633124904e-01
24 8 8.77579787449065174e-01
25 8 8.85588586400995359e-01
26 8 8.94741499488915792e-01
27 8 9.05038526712826252e-01
28 8 9.16479668072726961e-01
29 8 9.29064923568617251e-01
30 8 9.42794293200497679e-01
31 8 9.57667776968368245e-01
32 8 9.73685374872228948e-01
33 8 9.90847086912079789e-01
34 8 1.00000000000000000e+00
1 9 1.00000000000000000e+00
2 9 9.90847086912080011e-01
3 9 9.73685374872229059e-01
4 9 9.57667776968368578e-01
5 9 9.42794293200497679e-01
6 9 9.29064923568617362e-01
7 9 9.16479668072726517e-01
8 9 9.05038526712826363e-01
9 9 8.94741499488915792e-01
10 9 8.85588586400995470e-01
11 9 8.77579787449065174e-01
12 9 8.70715102633124904e-01
13 9 8.64994531953174439e-01
14 9 8.60418075409214334e-01
15 9 8.56985733001244476e-01
16 9 8.54697504729263979e-01
17 9 8.53553390593274175e-01
18 9 8.53553390593274175e-01
19 9 8.54697504729264312e-01
20 9 8.56985733001244476e-01
21 9 8.60418075409214334e-01
22 9 8.64994531953174661e-01
23 9 8.70715102633124904e-01
24 9 8.77579787449065174e-01
25 9 8.85588586400995470e-01
26 9 8.94741499488915792e-01
27 9 9.05038526712826363e-01
28 9 9.16479668072726961e-01
29 9 9.29064923568617362e-01
30 9 9.42794293200497679e-01
31 9 9.57667776968368356e-01
32 9 9.73685374872228948e-01
33 9 9.90847086912079789e-01
34 9 1.00000000000000000e+00
1 10 1.00000000000000000e+00
2 10 9.90847086912080011e-01
3 10 9.73685374872229059e-01
4 10 9.57667776968368578e-01
5 10 9.42794293200497791e-01
6 10 9.29064923568617473e-01
7 10 9.16479668072726628e-01
8 10 9.05038526712826363e-01
9 10 8.94741499488915792e-01
10 10 8.85588586400995470e-01
11 10 8.77579787449065174e-01
12 10 8.70715102633124904e-01
13 10 8.64994531953174439e-01
14 10 8.60418075409214445e-01
15 10 8.56985733001244476e-01
16 10 8.54697504729263979e-01
17 10 8.53553390593274175e-01
18 10 8.53553390593274175e-01
19 10 8.54697504729264312e-01
20 10 8.56985733001244476e-01
21 10 8.60418075409214445e-01
22 10 8.64994531953174661e-01
23 10 8.70715102633124904e-01
24 10 8.77579787449065174e-01
25 10 8.85588586400995470e-01
26 10 8.94741499488915792e-01
27 10 9.05038526712826363e-01
28 10 9.16479668072726961e-01
29 10 9.29064923568617473e-01
30 10 9.42794293200497791e-01
31 10 9.57667776968368356e-01
32 10 9.73685374872228948e-01
33 10 9.90847086912079789e-01
34 10 1.00000000000000000e+00
1 11 1.00000000000000000e+00
2 11 9.90847086912079900e-01
3 11 9.73685374872229059e-01
4 11 9.57667776968368578e-01
5 11 9.42794293200497679e-01
6 11 9.29064923568617473e-01
7 11 9.16479668072726628e-01
8 11 9.05038526712826252e-01
9 11 8.94741499488915792e-01
10 11 8.85588586400995359e-01
11 11 8.77579787449065063e-01
12 11 8.70715102633124793e-01
13 11 8.64994531953174439e-01
14 11 8.60418075409214445e-01
15 11 8.56985733001244476e-01
16 11 8.54697504729263868e-01
17 11 8.53553390593274175e-01
18 11 8.53553390593274175e-01
19 11 8.54697504729264312e-01
20 11 8.56985733001244476e-01
21 11 8.60418075409214445e-01
22 11 8.64994531953174661e-01
23 11 8.70715102633124793e-01
24 11 8.77579787449065063e-01
25 11 8.85588586400995359e-01
26 11 8.94741499488915792e-01
27 11 9.05038526712826252e-01
28 11 9.16479668072726961e-01
29 11 9.29064923568617473e-01
30 11 9.42794293200497679e-01
31 11 9.57667776968368356e-01
32 11 9.73685374872228837e-01
33 11 9.90847086912079678e-01
34 11 1.00000000000000000e+00
1 12 1.00000000000000000e+00
2 12 9.90847086912080011e-01
3 12 9.73685374872229170e-01
4 12 9.57667776968368578e-01
5 12 9.42794293200497679e-01
6 12 9.29064923568617473e-01
7 12 9.16479668072726628e-01
8 12 9.05038526712826252e-01
9 12 8.94741499488915792e-01
10 12 8.85588586400995470e-01
11 12 8.77579787449065174e-01
12 12 8.70715102633124793e-01
13 12 8.64994531953174439e-01
14 12 8.60418075409214445e-01
15 12 8.56985733001244476e-01
16 12 8.54697504729263868e-01
17 12 8.53553390593274175e-01
18 12 8.53553390593274175e-01
19 12 8.54697504729264423e-01
20 12 8.56985733001244476e-01
21 12 8.60418075409214445e-01
22 12 8.64994531953174661e-01
23 12 8.70715102633124793e-01
24 12 8.77579787449065174e-01
25 12 8.85588586400995470e-01
26 12 8.94741499488915792e-01
27 12 9.05038526712826252e-01
28 12 9.16479668072726961e-01
29 12 9.29064923568617473e-01
30 12 9.42794293200497679e-01
31 12 9.57667776968368356e-01
32 12 9.73685374872228948e-01
33 12 9.90847086912079678e-01
34 12 1.00000000000000000e+00
1 13 1.00000000000000000e+00
2 13 9.90847086912080011e-01
3 13 9.73685374872229170e-01
4 13 9.57667776968368578e-01
5 13 9.42794293200497679e-01
6 13 9.29064923568617473e-01
7 13 9.16479668072726628e-01
8 13 9.05038526712826252e-01
9 13 8.94741499488915903e-01
10 13 8.85588586400995470e-01
11 13 8.77579787449065174e-01
12 13 8.70715102633124793e-01
13 13 8.64994531953174550e-01
14 13 8.60418075409214334e-01
15 13 8.56985733001244476e-01
16 13 8.54697504729263868e-01
17 13 8.53553390593274175e-01
18 13 8.53553390593274175e-01
19 13 8.54697504729264423e-01
20 13 8.56985733001244476e-01
21 13 8.60418075409214334e-01
22 13 8.64994531953174661e-01
23 13 8.70715102633124793e-01
24 13 8.77579787449065174e-01
25 13 8.85588586400995470e-01
26 13 8.94741499488915903e-01
27 13 9.05038526712826252e-01
28 13 9.16479668072726961e-01
29 13 9.29064923568617473e-01
30 13 9.42794293200497679e-01
31 13 9.57667776968368356e-01
32 13 9.73685374872229059e-01
33 13 9.90847086912079678e-01
34 13 1.00000000000000000e+00
1 14 1.00000000000000000e+00
2 14 9.90847086912079900e-01
3 14 9.73685374872229281e-01
4 14 9.57667776968368578e-01
5 14 9.42794293200497679e-01
6 14 9.29064923568617362e-01
7 14 9.16479668072726628e-01
8 14 9.05038526712826252e-01
9 14 8.94741499488915903e-01
10 14 8.85588586400995470e-01
11 14 8.77579787449065174e-01
12 14 8.70715102633124904e-01
13 14 8.64994531953174550e-01
14 14 8.60418075409214334e-01
15 14 8.56985733001244476e-01
16 14 8.54697504729263868e-01
17 14 8.53553390593274175e-01
18 14 8.53553390593274175e-01
19 14 8.54697504729264423e-01
20 14 8.56985733001244476e-01
21 14 8.60418075409214334e-01
22 14 8.64994531953174661e-01
23 14 8.70715102633124904e-01
24 14 8.77579787449065174e-01
25 14 8.85588586400995470e-01
26 14 8.94741499488915903e-01
27 14 9.05038526712826252e-01
28 14 9.16479668072726961e-01
29 14 9.29064923568617362e-01
30 14 9.42794293200497679e-01
31 14 9.57667776968368356e-01
32 14 9.73685374872229059e-01
33 14 9.90847086912079678e-01
34 14 1.00000000000000000e+00
1 15 1.00000000000000000e+00
2 15 9.90847086912079900e-01
3 15 9.73685374872229281e-01
4 15 9.57667776968368467e-01
5 15 9.42794293200497568e-01
6 15 9.29064923568617251e-01
7 15 9.16479668072726517e-01
8 15 9.05038526712826141e-01
9 15 8.94741499488915792e-01
10 15 8.85588586400995359e-01
11 15 8.77579787449065063e-01
12 15 8.70715102633124904e-01
13 15 8.64994531953174550e-01
14 15 8.60418075409214222e-01
15 15 8.56985733001244476e-01
16 15 8.54697504729263868e-01
17 15 8.53553390593274175e-01
18 15 8.53553390593274175e-01
19 15 8.54697504729264423e-01
20 15 8.56985733001244476e-01
21 15 8.60418075409214222e-01
22 15 8.64994531953174661e-01
23 15 8.70715102633124904e-01
24 15 8.77579787449065063e-01
25 15 8.85588586400995359e-01
26 15 8.94741499488915792e-01
27 15 9.05038526712826252e-01
28 15 9.16479668072726961e-01
29 15 9.29064923568617251e-01
30 15 9.42794293200497568e-01
31 15 9.57667776968368356e-01
32 15 9.73685374872228948e-01
33 15 9.90847086912079567e-01
34 15 1.00000000000000000e+00
1 16 1.00000000000000000e+00
2 16 9.90847086912079900e-01
3 16 9.73685374872229281e-01
4 16 9.57667776968368356e-01
5 16 9.42794293200497568e-01
6 16 9.29064923568617251e-01
7 16 9.16479668072726517e-01
8 16 9.05038526712826141e-01
9 16 8.94741499488915792e-01
10 16 8.85588586400995359e-01
11 16 8.77579787449065063e-01
12 16 8.70715102633124904e-01
13 16 8.64994531953174550e-01
14 16 8.60418075409214111e-01
15 16 8.56985733001244476e-01
16 16 8.54697504729263868e-01
17 16 8.53553390593274175e-01
18 16 8.53553390593274175e-01
19 16 8.54697504729264312e-01
20 16 8.56985733001244476e-01
21 16 8.60418075409214111e-01
22 16 8.64994531953174661e-01
23 16 8.70715102633124904e-01
24 16 8.77579787449065063e-01
25 16 8.85588586400995359e-01
26 16 8.94741499488915792e-01
27 16 9.05038526712826252e-01
28 16 9.16479668072726850e-01
29 16 9.29064923568617251e-01
30 16 9.42794293200497568e-01
31 16 9.57667776968368245e-01
32 16 9.73685374872228948e-01
33 16 9.90847086912079567e-01
34 16 1.00000000000000000e+00
1 17 1.00000000000000000e+00
2 17 9.90847086912079900e-01
3 17 9.73685374872229281e-01
4 17 9.57667776968368356e-01
5 17 9.42794293200497568e-01
6 17 9.29064923568617251e-01
7 17 9.16479668072726517e-01
8 17 9.05038526712826030e-01
9 17 8.94741499488915792e-01
10 17 8.85588586400995359e-01
11 17 8.77579787449065063e-01
12 17 8.70715102633124904e-01
13 17 8.64994531953174550e-01
14 17 8.60418075409214111e-01
15 17 8.56985733001244476e-01
16 17 8.54697504729263979e-01
17 17 8.53553390593274175e-01
18 17 8.53553390593274175e-01
19 17 8.54697504729264312e-01
20 17 8.56985733001244476e-01
21 17 8.60418075409214111e-01
22 17 8.64994531953174661e-01
23 17 8.70715102633124904e-01
24 17 8.77579787449065063e-01
25 17 8.85588586400995359e-01
26 17 8.94741499488915792e-01
27 17 9.05038526712826252e-01
28 17 9.16479668072726850e-01
29 17 9.29064923568617251e-01
30 17 9.42794293200497568e-01
31 17 9.57667776968368245e-01
32 17 9.73685374872228948e-01
33 17 9.90847086912079567e-01
34 17 1.00000000000000000e+00
1 18 1.00000000000000000e+00
2 18 9.90847086912079900e-01
3 18 9.73685374872229281e-01
4 18 9.57667776968368356e-01
5 18 9.42794293200497568e-01
6 18 9.29064923568617362e-01
7 18 9.16479668072726628e-01
8 18 9.05038526712826030e-01
9 18 8.94741499488915792e-01
10 18 8.85588586400995470e-01
11 18 8.77579787449065063e-01
12 18 8.70715102633124904e-01
13 18 8.64994531953174550e-01
14 18 8.60418075409214111e-01
15 18 8.56985733001244476e-01
16 18 8.54697504729263979e-01
17 18 8.53553390593274175e-01
18 18 8.53553390593274175e-01
19 18 8.54697504729264312e-01
20 18 8.56985733001244476e-01
21 18 8.60418075409214111e-01
22 18 8.64994531953174661e-01
23 18 8.70715102633124904e-01
24 18 8.77579787449065063e-01
25 18 8.85588586400995470e-01
26 18 8.94741499488915792e-01
27 18 9.05038526712826252e-01
28 18 9.16479668072726850e-01
29 18 9.29064923568617362e-01
30 18 9.42794293200497568e-01
31 18 9.57667776968368245e-01
32 18 9.73685374872228948e-01
33 18 9.90847086912079678e-01
34 18 1.00000000000000000e+00
1 19 1.00000000000000000e+00
2 19 9.90847086912080011e-01
3 19 9.73685374872229392e-01
4 19 9.57667776968368467e-01
5 19 9.42794293200497679e-01
6 19 9.29064923568617473e-01
7 19 9.16479668072726739e-01
8 19 9.05038526712826030e-01
9 19 8.94741499488915792e-01
10 19 8.85588586400995470e-01
11 19 8.77579787449065174e-01
12 19 8.70715102633125015e-01
13 19 8.64994531953174661e-01
14 19 8.60418075409214111e-01
15 19 8.56985733001244476e-01
16 19 8.54697504729264090e-01
17 19 8.53553390593274175e-01
18 19 8.53553390593274175e-01
19 19 8.54697504729264423e-01
20 19 8.56985733001244476e-01
21 19 8.60418075409214111e-01
22 19 8.64994531953174772e-01
23 19 8.70715102633125015e-01
24 19 8.77579787449065174e-01
25 19 8.85588586400995470e-01
26 19 8.94741499488915903e-01
27 19 9.05038526712826252e-01
28 19 9.16479668072726850e-01
29 19 9.29064923568617473e-01
30 19 9.42794293200497679e-01
31 19 9.57667776968368356e-01
32 19 9.73685374872228948e-01
33 19 9.90847086912079789e-01
34 19 1.00000000000000000e+00
1 20 1.00000000000000000e+00
2 20 9.90847086912080011e-01
3 20 9.73685374872229392e-01
4 20 9.57667776968368467e-01
5 20 9.42794293200497791e-01
6 20 9.29064923568617473e-01
7 20 9.16479668072726739e-01
8 20 9.05038526712826030e-01
9 20 8.94741499488915681e-01
10 20 8.85588586400995470e-01
11 20 8.77579787449065174e-01
12 20 8.70715102633125015e-01
13 20 8.64994531953174661e-01
14 20 8.60418075409214111e-01
15 20 8.56985733001244476e-01
16 20 8.54697504729264090e-01
17 20 8.53553390593274175e-01
18 20 8.53553390593274175e-01
19 20 8.54697504729264423e-01
20 20 8.56985733001244476e-01
21 20 8.60418075409214111e-01
22 20 8.64994531953174772e-01
23 20 8.70715102633125015e-01
24 20 8.77579787449065174e-01
25 20 8.85588586400995470e-01
26 20 8.94741499488915792e-01
27 20 9.05038526712826252e-01
28 20 9.16479668072726850e-01
29 20 9.29064923568617473e-01
30 20 9.42794293200497791e-01
31 20 9.57667776968368467e-01
32 20 9.73685374872228948e-01
33 20 9.90847086912079900e-01
34 20 1.00000000000000000e+00
1 21 1.00000000000000000e+00
2 21 9.90847086912080011e-01
3 21 9.73685374872229392e-01
4 21 9.57667776968368467e-01
5 21 9.42794293200497791e-01
6 21 9.29064923568617473e-01
7 21 9.16479668072726739e-01
8 21 9.05038526712826030e-01
9 21 8.94741499488915681e-01
10 21 8.85588586400995359e-01
11 21 8.77579787449065174e-01
12 21 8.70715102633125015e-01
13 21 8.64994531953174661e-01
14 21 8.60418075409214111e-01
15 21 8.56985733001244476e-01
16 21 8.54697504729264090e-01
17 21 8.53553390593274175e-01
18 21 8.53553390593274175e-01
19 21 8.54697504729264312e-01
20 21 8.56985733001244476e-01
21 21 8.60418075409214111e-01
22 21 8.64994531953174772e-01
23 21 8.70715102633125015e-01
24 21 8.77579787449065174e-01
25 21 8.85588586400995359e-01
26 21 8.94741499488915792e-01
27 21 9.05038526712826252e-01
28 21 9.16479668072726850e-01
29 21 9.29064923568617473e-01
30 21 9.42794293200497791e-01
31 21 9.57667776968368467e-01
32 21 9.73685374872228837e-01
33 21 9.90847086912079900e-01
34 21 1.00000000000000000e+00
1 22 1.00000000000000000e+00
2 22 9.90847086912080122e-01
3 22 9.73685374872229281e-01
4 22 9.57667776968368467e-01
5 22 9.42794293200497902e-01
6 22 9.29064923568617473e-01
7 22 9.16479668072726739e-01
8 22 9.05038526712826030e-01
9 22 8.94741499488915681e-01
10 22 8.85588586400995359e-01
11 22 8.77579787449065174e-01
12 22 8.70715102633125015e-01
13 22 8.64994531953174661e-01
14 22 8.60418075409214111e-01
15 22 8.56985733001244476e-01
16 22 8.54697504729264090e-01
17 22 8.53553390593274175e-01
18 22 8.53553390593274175e-01
19 22 8.54697504729264312e-01
20 22 8.56985733001244476e-01
21 22 8.60418075409214111e-01
22 22 8.64994531953174772e-01
23 22 8.70715102633125015e-01
24 22 8.77579787449065174e-01
25 22 8.85588586400995359e-01
26 22 8.94741499488915792e-01
27 22 9.05038526712826141e-01
28 22 9.16479668072726850e-01
29 22 9.29064923568617473e-01
30 22 9.42794293200497902e-01
31 22 9.57667776968368467e-01
32 22 9.73685374872228837e-01
33 22 9.90847086912079900e-01
34 22 1.00000000000000000e+00
1 23 1.00000000000000000e+00
2 23 9.90847086912080122e-01
3 23 9.73685374872229392e-01
4 23 9.57667776968368467e-01
5 23 9.42794293200497902e-01
6 23 9.29064923568617473e-01
7 23 9.16479668072726739e-01
8 23 9.05038526712826030e-01
9 23 8.94741499488915681e-01
10 23 8.85588586400995359e-01
11 23 8.77579787449065174e-01
12 23 8.70715102633125015e-01
13 23 8.64994531953174661e-01
14 23 8.60418075409214222e-01
15 23 8.56985733001244476e-01
16 23 8.54697504729264201e-01
17 23 8.53553390593274286e-01
18 23 8.53553390593274286e-01
19 23 8.54697504729264312e-01
20 23 8.56985733001244476e-01
21 23 8.60418075409214222e-01
22 23 8.64994531953174772e-01
23 23 8.70715102633125015e-01
24 23 8.77579787449065285e-01
25 23 8.85588586400995359e-01
26 23 8.94741499488915792e-01
27 23 9.05038526712826252e-01
28 23 9.16479668072726850e-01
29 23 9.29064923568617473e-01
30 23 9.42794293200497902e-01
31 23 9.57667776968368467e-01
32 23 9.73685374872228837e-01
33 23 9.90847086912079900e-01
34 23 1.00000000000000000e+00
1 24 1.00000000000000000e+00
2 24 9.90847086912080011e-01
3 24 9.73685374872229281e-01
4 24 9.57667776968368356e-01
5 24 9.42794293200497902e-01
6 24 9.29064923568617473e-01
7 24 9.16479668072726739e-01
8 24 9.05038526712826030e-01
9 24 8.94741499488915681e-01
10 24 8.85588586400995359e-01
11 24 8.77579787449065063e-01
12 24 8.70715102633125015e-01
13 24 8.64994531953174661e-01
14 24 8.60418075409214222e-01
15 24 8.56985733001244365e-01
16 24 8.54697504729264201e-01
17 24 8.53553390593274175e-01
18 24 8.53553390593274175e-01
19 24 8.54697504729264312e-01
20 24 8.56985733001244365e-01
21 24 8.60418075409214222e-01
22 24 8.64994531953174772e-01
23 24 8.70715102633125015e-01
24 24 8.77579787449065174e-01
25 24 8.85588586400995359e-01
26 24 8.94741499488915792e-01
27 24 9.05038526712826252e-01
28 24 9.16479668072726739e-01
29 24 9.29064923568617473e-01
30 24 9.42794293200497902e-01
31 24 9.57667776968368356e-01
32 24 9.73685374872228837e-01
33 24 9.90847086912079789e-01
34 24 1.00000000000000000e+00
1 25 1.00000000000000000e+00
2 25 9.90847086912080011e-01
3 25 9.73685374872229281e-01
4 25 9.57667776968368467e-01
5 25 9.42794293200497902e-01
6 25 9.29064923568617473e-01
7 25 9.16479668072726739e-01
8 25 9.05038526712826141e-01
9 25 8.94741499488915792e-01
10 25 8.85588586400995470e-01
11 25 8.77579787449065063e-01
12 25 8.70715102633125126e-01
13 25 8.64994531953174661e-01
14 25 8.60418075409214222e-01
15 25 8.56985733001244365e-01
16 25 8.54697504729264201e-01
17 25 8.53553390593274175e-01
18 25 8.53553390593274175e-01
19 25 8.54697504729264312e-01
20 25 8.56985733001244365e-01
21 25 8.60418075409214222e-01
22 25 8.64994531953174772e-01
23 25 8.70715102633125126e-01
24 25 8.77579787449065174e-01
25 25 8.85588586400995470e-01
26 25 8.94741499488915792e-01
27 25 9.05038526712826363e-01
28 25 9.16479668072726739e-01
29 25 9.29064923568617473e-01
30 25 9.42794293200497902e-01
31 25 9.57667776968368356e-01
32 25 9.73685374872228948e-01
33 25 9.90847086912079789e-01
34 25 1.00000000000000000e+00
1 26 1.00000000000000000e+00
2 26 9.90847086912079900e-01
3 26 9.73685374872229170e-01
4 26 9.57667776968368467e-01
5 26 9.42794293200497791e-01
6 26 9.29064923568617362e-01
7 26 9.16479668072726739e-01
8 26 9.05038526712826141e-01
9 26 8.94741499488915792e-01
10 26 8.85588586400995470e-01
11 26 8.77579787449065063e-01
12 26 8.70715102633125015e-01
13 26 8.64994531953174550e-01
14 26 8.60418075409214222e-01
15 26 8.56985733001244254e-01
16 26 8.54697504729264201e-01
17 26 8.53553390593274175e-01
18 26 8.53553390593274175e-01
19 26 8.54697504729264312e-01
20 26 8.56985733001244254e-01
21 26 8.60418075409214222e-01
22 26 8.64994531953174661e-01
23 26 8.70715102633125015e-01
24 26 8.77579787449065174e-01
25 26 8.85588586400995470e-01
26 26 8.94741499488915792e-01
27 26 9.05038526712826363e-01
28 26 9.16479668072726739e-01
29 26 9.29064923568617362e-01
30 26 9.42794293200497791e-01
31 26 9.57667776968368356e-01
32 26 9.73685374872228948e-01
33 26 9.90847086912079789e-01
34 26 1.00000000000000000e+00
1 27 1.00000000000000000e+00
2 27 9.90847086912079900e-01
3 27 9.73685374872229170e-01
4 27 9.57667776968368356e-01
5 27 9.42794293200497679e-01
6 27 9.29064923568617251e-01
7 27 9.16479668072726739e-01
8 27 9.05038526712826030e-01
9 27 8.94741499488915792e-01
10 27 8.85588586400995470e-01
11 27 8.77579787449065063e-01
12 27 8.70715102633125015e-01
13 27 8.64994531953174439e-01
14 27 8.60418075409214222e-01
15 27 8.56985733001244254e-01
16 27 8.54697504729264090e-01
17 27 8.53553390593274175e-01
18 27 8.53553390593274175e-01
19 27 8.54697504729264201e-01
20 27 8.56985733001244254e-01
21 27 8.60418075409214222e-01
22 27 8.64994531953174550e-01
23 27 8.70715102633125015e-01
24 27 8.77579787449065174e-01
25 27 8.85588586400995470e-01
26 27 8.94741499488915792e-01
27 27 9.05038526712826252e-01
28 27 9.16479668072726739e-01
29 27 9.29064923568617251e-01
30 27 9.42794293200497679e-01
31 27 9.57667776968368245e-01
32 27 9.73685374872228948e-01
33 27 9.90847086912079789e-01
34 27 1.00000000000000000e+00
1 28 1.00000000000000000e+00
2 28 9.90847086912079789e-01
3 28 9.73685374872229170e-01
4 28 9.57667776968368356e-01
5 28 9.42794293200497679e-01
6 28 9.29064923568617251e-01
7 28 9.16479668072726739e-01
8 28 9.05038526712826030e-01
9 28 8.94741499488915792e-01
10 28 8.85588586400995470e-01
11 28 8.77579787449065063e-01
12 28 8.70715102633125015e-01
13 28 8.64994531953174439e-01
14 28 8.60418075409214222e-01
15 28 8.56985733001244254e-01
16 28 8.54697504729264090e-01
17 28 8.53553390593274064e-01
18 28 8.53553390593274064e-01
19 28 8.54697504729264201e-01
20 28 8.56985733001244254e-01
21 28 8.60418075409214222e-01
22 28 8.64994531953174550e-01
23 28 8.70715102633125015e-01
24 28 8.77579787449065174e-01
25 28 8.85588586400995470e-01
26 28 8.94741499488915792e-01
27 28 9.05038526712826252e-01
28 28 9.16479668072726739e-01
29 28 9.29064923568617251e-01
30 28 9.42794293200497679e-01
31 28 9.57667776968368245e-01
32 28 9.73685374872228837e-01
33 28 9.90847086912079678e-01
34 28 1.00000000000000000e+00
1 29 1.00000000000000000e+00
2 29 9.90847086912079789e-01
3 29 9.73685374872229170e-01
4 29 9.57667776968368356e-01
5 29 9.42794293200497679e-01
6 29 9.29064923568617251e-01
7 29 9.16479668072726628e-01
8 29 9.05038526712826030e-01
9 29 8.94741499488915792e-01
10 29 8.85588586400995470e-01
11 29 8.77579787449065063e-01
12 29 8.70715102633124904e-01
13 29 8.64994531953174439e-01
14 29 8.60418075409214222e-01
15 29 8.56985733001244254e-01
16 29 8.54697504729264090e-01
17 29 8.53553390593274064e-01
18 29 8.53553390593274064e-01
19 29 8.54697504729264201e-01
20 29 8.56985733001244254e-01
21 29 8.60418075409214222e-01
22 29 8.64994531953174550e-01
23 29 8.70715102633124904e-01
24 29 8.77579787449065174e-01
25 29 8.85588586400995470e-01
26 29 8.94741499488915792e-01
27 29 9.05038526712826141e-01
28 29 9.16479668072726628e-01
29 29 9.29064923568617251e-01
30 29 9.42794293200497679e-01
31 29 9.57667776968368245e-01
32 29 9.73685374872228837e-01
33 29 9.90847086912079678e-01
34 29 1.00000000000000000e+00
1 30 1.00000000000000000e+00
2 30 9.90847086912079789e-01
3 30 9.73685374872229170e-01
4 30 9.57667776968368356e-01
5 30 9.42794293200497791e-01
6 30 9.29064923568617251e-01
7 30 9.16479668072726628e-01
8 30 9.05038526712826030e-01
9 30 8.94741499488915792e-01
10 30 8.85588586400995470e-01
11 30 8.77579787449065063e-01
12 30 8.70715102633124904e-01
13 30 8.64994531953174439e-01
14 30 8.60418075409214334e-01
15 30 8.56985733001244254e-01
16 30 8.54697504729264090e-01
17 30 8.53553390593274064e-01
18 30 8.53553390593274064e-01
19 30 8.54697504729264201e-01
20 30 8.56985733001244254e-01
21 30 8.60418075409214334e-01
22 30 8.64994531953174550e-01
23 30 8.70715102633124904e-01
24 30 8.77579787449065174e-01
25 30 8.85588586400995470e-01
26 30 8.94741499488915792e-01
27 30 9.05038526712826252e-01
28 30 9.16479668072726628e-01
29 30 9.29064923568617251e-01
30 30 9.42794293200497791e-01
31 30 9.57667776968368245e-01
32 30 9.73685374872228948e-01
33 30 9.90847086912079678e-01
34 30 1.00000000000000000e+00
1 31 1.00000000000000000e+00
2 31 9.90847086912079678e-01
3 31 9.73685374872229170e-01
4 31 9.57667776968368356e-01
5 31 9.42794293200497679e-01
6 31 9.29064923568617251e-01
7 31 9.16479668072726517e-01
8 31 9.05038526712826030e-01
9 31 8.94741499488915681e-01
10 31 8.85588586400995470e-01
11 31 8.77579787449065063e-01
12 31 8.70715102633124904e-01
13 31 8.64994531953174439e-01
14 31 8.60418075409214334e-01
15 31 8.56985733001244254e-01
16 31 8.54697504729264090e-01
17 31 8.53553390593274064e-01
18 31 8.53553390593274064e-01
19 31 8.54697504729264201e-01
20 31 8.56985733001244254e-01
21 31 8.60418075409214334e-01
22 31 8.64994531953174550e-01
23 31 8.70715102633124904e-01
24 31 8.77579787449065174e-01
25 31 8.85588586400995470e-01
26 31 8.94741499488915792e-01
27 31 9.05038526712826141e-01
28 31 9.16479668072726628e-01
29 31 9.29064923568617251e-01
30 31 9.42794293200497679e-01
31 31 9.57667776968368245e-01
32 31 9.73685374872228948e-01
33 31 9.90847086912079678e-01
34 31 1.00000000000000000e+00
1 32 1.00000000000000000e+00
2 32 9.90847086912079678e-01
3 32 9.73685374872229059e-01
4 32 9.57667776968368356e-01
5 32 9.42794293200497679e-01
6 32 9.29064923568617140e-01
7 32 9.16479668072726517e-01
8 32 9.05038526712826030e-01
9 32 8.94741499488915681e-01
10 32 8.85588586400995359e-01
11 32 8.77579787449064952e-01
12 32 8.70715102633124793e-01
13 32 8.64994531953174439e-01
14 32 8.60418075409214334e-01
15 32 8.56985733001244254e-01
16 32 8.54697504729264090e-01
17 32 8.53553390593274064e-01
18 32 8.53553390593274064e-01
19 32 8.54697504729264201e-01
20 32 8.56985733001244254e-01
21 32 8.60418075409214334e-01
22 32 8.64994531953174550e-01
23 32 8.70715102633124793e-01
24 32 8.77579787449065063e-01
25 32 8.85588586400995359e-01
26 32 8.94741499488915792e-01
27 32 9.05038526712826141e-01
28 32 9.16479668072726628e-01
29 32 9.29064923568617140e-01
30 32 9.42794293200497679e-01
31 32 9.57667776968368245e-01
32 32 9.73685374872228837e-01
33 32 9.90847086912079567e-01
34 32 1.00000000000000000e+00
1 33 1.00000000000000000e+00
2 33 9.90847086912079678e-01
3 33 9.73685374872229059e-01
4 33 9.57667776968368356e-01
5 33 9.42794293200497679e-01
6 33 9.29064923568617140e-01
7 33 9.16479668072726517e-01
8 33 9.05038526712826030e-01
9 33 8.94741499488915681e-01
10 33 8.85588586400995359e-01
11 33 8.77579787449064952e-01
12 33 8.70715102633124793e-01
13 33 8.64994531953174439e-01
14 33 8.60418075409214334e-01
15 33 8.56985733001244254e-01
16 33 8.54697504729264090e-01
17 33 8.53553390593274064e-01
18 33 8.53553390593274064e-01
19 33 8.54697504729264201e-01
20 33 8.56985733001244254e-01
21 33 8.60418075409214334e-01
22 33 8.64994531953174550e-01
23 33 8.70715102633124793e-01
24 33 8.77579787449065063e-01
25 33 8.85588586400995359e-01
26 33 8.94741499488915792e-01
27 33 9.05038526712826141e-01
28 33 9.16479668072726628e-01
29 33 9.29064923568617140e-01
30 33 9.42794293200497679e-01
31 33 9.57667776968368245e-01
32 33 9.73685374872228837e-01
33 33 9.90847086912079567e-01
34 33 1.00000000000000000e+00
1 34 1.00000000000000000e+00
2 34 9.90847086912079678e-01
3 34 9.73685374872229059e-01
4 34 9.57667776968368356e-01
5 34 9.42794293200497679e-01
6 34 9.29064923568617140e-01
7 34 9.16479668072726517e-01
8 34 9.05038526712826030e-01
9 34 8.94741499488915681e-01
10 34 8.85588586400995359e-01
11 34 8.77579787449064952e-01
12 34 8.70715102633124793e-01
13 34 8.64994531953174439e-01
14 34 8.60418075409214334e-01
15 34 8.56985733001244254e-01
16 34 8.54697504729264090e-01
17 34 8.53553390593274064e-01
18 34 8.53553390593274064e-01
19 34 8.54697504729264201e-01
20 34 8.56985733001244254e-01
21 34 8.60418075409214334e-01
22 34 8.64994531953174550e-01
23 34 8.70715102633124793e-01
24 34 8.77579787449065063e-01
25 34 8.85588586400995359e-01
26 34 8.94741499488915792e-01
27 34 9.05038526712826141e-01
28 34 9.16479668072726628e-01
29 34 9.29064923568617140e-01
30 34 9.42794293200497679e-01
31 34 9.57667776968368245e-01
32 34 9.73685374872228837e-01
33 34 9.90847086912079567e-01
34 34 1.00000000000000000e+00
