%%MatrixMarket matrix coordinate  real general
4 4 16
1 1 0.00000000000000000e+00
2 1 4.14213562373095034e-01
3 1 1.00000000000000000e+00
4 1 1.00000000000000000e+00
1 2 0.00000000000000000e+00
2 2 5.17766952966368876e-01
3 2 1.25000000000000000e+00
4 2 1.25000000000000000e+00
1 3 0.00000000000000000e+00
2 3 7.24873734152916449e-01
3 3 1.75000000000000022e+00
4 3 1.75000000000000000e+00
1 4 0.00000000000000000e+00
2 4 8.28427124746190180e-01
3 4 2.00000000000000000e+00
4 4 2.00000000000000000e+00
