%%MatrixMarket matrix coordinate  real general
4 4 16
1 1 1.00000000000000000e+00
2 1 1.00000000000000000e+00
3 1 4.14213562373095145e-01
4 1 6.12323399573676604e-17
1 2 1.25000000000000000e+00
2 2 1.25000000000000000e+00
3 2 5.17766952966368876e-01
4 2 7.65404249467095662e-17
1 3 1.75000000000000000e+00
2 3 1.75000000000000022e+00
3 3 7.24873734152916449e-01
4 3 1.07156594925393403e-16
1 4 2.00000000000000000e+00
2 4 2.00000000000000000e+00
3 4 8.28427124746190291e-01
4 4 1.22464679914735321e-16
