%%MatrixMarket matrix coordinate  real general
4 4 16
1 1 1.00000000000000000e+00
2 1 8.53553390593273731e-01
3 1 8.53553390593273731e-01
4 1 1.00000000000000000e+00
1 2 1.00000000000000000e+00
2 2 8.53553390593273731e-01
3 2 8.53553390593273731e-01
4 2 1.00000000000000000e+00
1 3 1.00000000000000000e+00
2 3 8.53553390593273731e-01
3 3 8.53553390593273731e-01
4 3 1.00000000000000000e+00
1 4 1.00000000000000000e+00
2 4 8.53553390593273731e-01
3 4 8.53553390593273731e-01
4 4 1.00000000000000000e+00
